supercell generated structure. e_col = 0
   1.00000000000000     
    11.4574989423404912    0.0000000000000000    0.0000000000000000
    -5.7287494711702456    9.9224851478651708    0.0000000000000000
     0.0000000000000000    0.0000000000000000   22.4047041953603063
   Al   Ca   Mg   O    Ti
    64     8    16   152    16
Direct
  0.0000021123904699  0.9999978876095302  0.0003262846058597
  0.9999978876095302  0.0000021123904699  0.5003262846058668
  0.0000021153446934  0.4999978913025475  0.0003262899178701
  0.9999978806553064  0.5000021026974589  0.5003262899178701
  0.5000021056974556  0.9999978826553065  0.0003262899178701
  0.4999978943025442  0.0000021173446936  0.5003262899178701
  0.5000021068499062  0.4999978881500968  0.0003262936308041
  0.4999978891500933  0.5000021058499097  0.5003262936308112
  0.9999986099129328  0.0000013900870673  0.2385611940000408
  0.0000013900870673  0.9999986099129328  0.7385611720000390
  0.9999987088503244  0.5000015248136296  0.2385611831732880
  0.0000012871496754  0.4999984691863768  0.7385611611732862
  0.4999984721863735  0.0000012891496756  0.2385611831732880
  0.5000015278136263  0.9999987108503245  0.7385611611732862
  0.4999985391300152  0.5000014558699877  0.2385611755478997
  0.5000014568699842  0.4999985381300187  0.7385611535478979
  0.4167384533533797  0.0832615167338584  0.1050486240782382
  0.4167384846454185  0.3334703417138838  0.1050480579195742
  0.1665298592125596  0.0832615991754819  0.1050480444162637
  0.0832615237338554  0.4167384803533783  0.6050486460782328
  0.0832615991754819  0.1665298622125634  0.6050480664162585
  0.3334703527138883  0.4167385136454174  0.6050480799195690
  0.0817960218262555  0.4182039849620851  0.8949895788243701
  0.3364134345302858  0.4182034045789972  0.8949921058027888
  0.0817966981187287  0.1635867586652324  0.8949921192474084
  0.4182039579620864  0.0817960148262585  0.3949895348243663
  0.1635867556652286  0.0817966981187287  0.3949920752474123
  0.4182033755789983  0.3364134235302814  0.3949920618027926
  0.4167384079208011  0.5832615570791997  0.1050486633472209
  0.4167383704683560  0.8334700803457553  0.1050480872969210
  0.1665298986542397  0.5832616235316432  0.1050480872969210
  0.0832615231976585  0.9167384238023477  0.6050486152356190
  0.0832614716931301  0.6665296424853009  0.6050480517098145
  0.3334703615146991  0.9167384713068760  0.6050480517098145
  0.0817960210504992  0.9182039259495068  0.8949896057444399
  0.3364134376785302  0.9182033568291326  0.8949921309202897
  0.0817965861708804  0.6635865663214704  0.8949921309202897
  0.4182039185696398  0.5817960464303612  0.3949895011728705
  0.1635867872230250  0.5817967168003042  0.3949920368837818
  0.4182032771996883  0.8364131917769695  0.3949920368837818
  0.9167384498023428  0.0832615201976547  0.1050485932356244
  0.9167384953068709  0.3334703765146967  0.1050480297098196
  0.6665296324853001  0.0832614726931267  0.1050480297098196
  0.5832615890791952  0.4167384369207999  0.6050486853472156
  0.5832616265316399  0.1665299136542445  0.6050481092969158
  0.8334700553457568  0.4167383704683560  0.6050481092969158
  0.5817960784303567  0.4182039475696386  0.8949895451728672
  0.8364131667769781  0.4182032771996883  0.8949920808837850
  0.5817967198003009  0.1635868022230298  0.8949920808837850
  0.9182039519495019  0.0817960180504954  0.3949895617444431
  0.6635865563214625  0.0817965871708769  0.3949920869202865
  0.9182033808291274  0.3364134526785278  0.3949920869202865
  0.9167384512661390  0.5832615136466213  0.1050486240782382
  0.9167383978245145  0.8334701317874365  0.1050480444162637
  0.6665296652861128  0.5832614803545819  0.1050480579195742
  0.5832615196466218  0.9167384272661441  0.6050486460782328
  0.5832615033545803  0.6665296772861138  0.6050480799195690
  0.8334700807874429  0.9167383448245208  0.6050480664162585
  0.5817960150379152  0.9182039291737437  0.8949895788243701
  0.8364131843347733  0.9182032458812808  0.8949921192474084
  0.5817966124209937  0.6635865954697098  0.8949921058027888
  0.9182039531737386  0.5817960090379147  0.3949895348243663
  0.6635865834697088  0.5817965894209953  0.3949920618027926
  0.9182032988812745  0.8364132353347740  0.3949920752474123
  0.3332911423732145  0.1667088807072813  0.2598765428740201
  0.1667088867072747  0.3332911633732127  0.7598765868740167
  0.3332911624152448  0.6667088395847481  0.2598765399975015
  0.1667089253100739  0.8332910796899232  0.7598765906742266
  0.8332910016899239  0.1667089013100790  0.2598765466742300
  0.6667088465847452  0.3332911784152461  0.7598765839974981
  0.8332910692927219  0.6667088546267886  0.2598765428740201
  0.6667088906267916  0.8332911002927209  0.7598765868740167
  0.1666685028652323  0.3333316294364467  0.0259604715178162
  0.3333316084364485  0.1666684968652389  0.5259604715178163
  0.3333349931486251  0.1666651069123832  0.9740491247732088
  0.1666651129123766  0.3333350141486233  0.4740491247732090
  0.1666684718786412  0.8333315331213486  0.0259604876580716
  0.3333315557444466  0.6666684462555535  0.5259604470670887
  0.3333349430168224  0.6666650589831774  0.9740491572018748
  0.1666650839123706  0.8333349210876265  0.4740491032468265
  0.6666684532555506  0.3333315717444479  0.0259604470670886
  0.8333314551213492  0.1666684478786534  0.5259604876580717
  0.8333348430876272  0.1666650599123758  0.9740491032468264
  0.6666650659831744  0.3333349590168238  0.4740491572018750
  0.6666684245635578  0.8333314841347631  0.0259604715178162
  0.8333314531347641  0.6666683885635548  0.5259604715178163
  0.8333348430876201  0.6666650038513778  0.9740491247732088
  0.6666650398513808  0.8333348740876191  0.4740491247732090
  0.0000015504206350  0.9999984495793648  0.1532152980233168
  0.9999984495793648  0.0000015504206350  0.6532152760233222
  0.0000010249986560  0.9999989750013439  0.8504777268334117
  0.9999989750013439  0.0000010249986560  0.3504776608334205
  0.0000015133963847  0.4999983895398895  0.1532152759213806
  0.9999984826036148  0.5000016044601174  0.6532152539213859
  0.0000010626593394  0.4999990323514795  0.8504777479599647
  0.9999989333406601  0.5000009616485274  0.3504776819599664
  0.5000016074601141  0.9999984846036150  0.1532152759213806
  0.4999983925398861  0.0000015153963849  0.6532152539213859
  0.5000009646485241  0.9999989353406603  0.8504777479599647
  0.4999990353514762  0.0000010646593396  0.3504776819599664
  0.5000015836472975  0.4999984113527059  0.1532152609122027
  0.4999984123527024  0.5000015826473010  0.6532152389122080
  0.5000009885493485  0.4999990064506549  0.8504777624168732
  0.4999990074506585  0.5000009875493520  0.3504776964168749
  0.1666675596981634  0.3333323892124568  0.9375733886605792
  0.3333323682124587  0.1666675536981700  0.4375733886605793
  0.3333359360225156  0.1666639745545017  0.0619311252893697
  0.1666639805544951  0.3333359570225209  0.5619311092893684
  0.1666675799819700  0.8333324250180267  0.9375733557870424
  0.3333323900889255  0.6666676119110748  0.4375734392381339
  0.3333359619071753  0.6666640400928178  0.0619310608879220
  0.1666640029606148  0.8333360020393964  0.5619311514633554
  0.6666676189110718  0.3333324060889268  0.9375734392381337
  0.8333323470180274  0.1666675559819751  0.4375733557870425
  0.8333359240393970  0.1666639789606199  0.0619311674633567
  0.6666640470928148  0.3333359779071767  0.5619310448879207
  0.6666676647875478  0.8333324273018319  0.9375733886605792
  0.8333323963018329  0.6666676287875448  0.4375733886605793
  0.8333359754455155  0.6666640609774735  0.0619311252893697
  0.6666640969774765  0.8333360064455145  0.5619311092893684
  0.0893073942904978  0.4106925423339503  0.2494830575531832
  0.0893323058355719  0.1786111878761140  0.2494841652452198
  0.3213885722989723  0.4106675564085097  0.2494841743116527
  0.4106925343339496  0.0893073832905005  0.7494829915531849
  0.4106675434085121  0.3213885622989715  0.7494841083116474
  0.1786111758761131  0.0893322928355744  0.7494840992452144
  0.0893073098689259  0.9106926741310802  0.2494830510007073
  0.0893323077434928  0.6786112799387560  0.2494841692523682
  0.3213886890612380  0.9106676682565124  0.2494841692523682
  0.4106924913924628  0.5893074686075336  0.7494829971693573
  0.4106675644624405  0.8213886405310411  0.7494841067637940
  0.1786113774689604  0.5893324035375570  0.7494841067637940
  0.5893074936075321  0.4106925013924637  0.2494830631693556
  0.5893324085375610  0.1786113904689579  0.2494841727637993
  0.8213886505310419  0.4106675664624407  0.2494841727637993
  0.9106926871310778  0.0893073198689267  0.7494829850007090
  0.9106676772565095  0.3213886890612380  0.7494841032523628
  0.6786113079387583  0.0893323257434943  0.7494841032523628
  0.5893074206660499  0.9106926107095065  0.2494830575531832
  0.5893323985914903  0.6786114067010225  0.2494841743116527
  0.8213888211238831  0.9106677011644323  0.2494841652452198
  0.9106926227095004  0.5893074276660469  0.7494829915531849
  0.9106677201644303  0.8213888431238849  0.7494840992452144
  0.6786114337010283  0.5893324135914880  0.7494841083116474
  0.0738255447568159  0.4261743445190538  0.0555877058559565
  0.0738257319915687  0.1476450104356024  0.0555872535839604
  0.3523548960910300  0.4261741794774638  0.0555872257874505
  0.4261743305190527  0.0738255507568093  0.5555876948559448
  0.4261741804774603  0.3523548890910259  0.5555872147874459
  0.1476450164356028  0.0738257319915687  0.5555872425839559
  0.4257743742418288  0.0742255350099408  0.9461215648515542
  0.1484557976079449  0.0742246034952240  0.9461215948060635
  0.4257753194079191  0.3515441015496841  0.9461216175653158
  0.0742255290099474  0.4257743882418300  0.4461215648515543
  0.3515441085496883  0.4257753184079154  0.4461216175653162
  0.0742246034952240  0.1484557916079515  0.4461215948060639
  0.0738255741239877  0.9261743908760128  0.0555877140113742
  0.0738257282566435  0.6476450306779772  0.0555872285648696
  0.3523548973220169  0.9261742397433610  0.0555872285648696
  0.4261743915509291  0.5738256084490710  0.5555876964414925
  0.4261742179742287  0.8523549444355903  0.5555872375261635
  0.1476450535644095  0.5738257760257708  0.5555872375261635
  0.4257744224646661  0.5742255775353334  0.9461215611119962
  0.1484558328695803  0.5742246350764968  0.9461215964899645
  0.4257753589235028  0.8515441651304198  0.9461215964899645
  0.0742255444048718  0.9257744205951292  0.4461215606622014
  0.3515441084667537  0.9257753611461799  0.4461216160330166
  0.0742246068538245  0.6484558195332401  0.4461216160330166
  0.5738255844490691  0.4261743855509286  0.0555877074414971
  0.5738257790257675  0.1476450495644092  0.0555872485261680
  0.8523549754355894  0.4261742179742287  0.0555872485261680
  0.9261744658760084  0.0738256031239865  0.5555877030113696
  0.9261742867433613  0.3523549133220182  0.5555872175648651
  0.6476450566779793  0.0738257542566456  0.5555872175648651
  0.9257744955951247  0.0742255734048707  0.9461215606622013
  0.6484558455332493  0.0742246328538196  0.9461216160330161
  0.9257754081461802  0.3515441244667550  0.9461216160330161
  0.5742255535353314  0.4257744164646656  0.4461215611119963
  0.8515441961304188  0.4257753589235028  0.4461215964899650
  0.5742246380764935  0.1484558288695799  0.4461215964899650
  0.5738256234809437  0.9261744432431901  0.0555877058559565
  0.5738257915225373  0.6476450549089695  0.0555872257874505
  0.8523549705643926  0.9261742620084308  0.0555872535839604
  0.9261744732431855  0.5738256494809458  0.5555876948559448
  0.9261743080084275  0.8523549835643972  0.5555872425839559
  0.6476450799089751  0.5738258145225357  0.5555872147874459
  0.9257744889900544  0.5742256057581691  0.9461215648515542
  0.6484558674503166  0.5742246755920841  0.9461216175653158
  0.9257754365047721  0.8515442023920553  0.9461215948060635
  0.5742255797581669  0.9257744589900591  0.4461215648515543
  0.8515441893920507  0.9257753905047754  0.4461215948060639
  0.5742246525920858  0.6484558424503110  0.4461216175653162
  0.2528993081944022  0.2471005808988652  0.1500095549498303
  0.2528986317977133  0.0057893548812973  0.1500108949637267
  0.4942107702008198  0.2471013609718464  0.1500109236006098
  0.2471005838988619  0.2528993091944058  0.6500095219498310
  0.2471013609718464  0.4942107442008247  0.6500108906006106
  0.0057893568812974  0.2528986327977170  0.6500108619637275
  0.2468276248138520  0.2531722850015984  0.8489972243740435
  0.0063559251563884  0.2531749016194356  0.8489922342549654
  0.2468250892818516  0.4936441498066448  0.8489922077857919
  0.2531722840015948  0.2468276218138553  0.3489971803740464
  0.4936441758066398  0.2468250892818516  0.3489921637857952
  0.2531749006194319  0.0063559231563882  0.3489921902549687
  0.2528992088640378  0.7471007611359599  0.1500096065921048
  0.2528984696432564  0.5057889960209353  0.1500109689495930
  0.4942109789790660  0.7471015243567434  0.1500109689495930
  0.2471005956930968  0.7528994213069009  0.6500094963766874
  0.2471011912468195  0.9942104214182704  0.6500108317275761
  0.0057895395817300  0.7528987767531776  0.6500108317275761
  0.2468276479441994  0.7531723690557983  0.8489972424914550
  0.0063560756383832  0.7531750167743255  0.8489922536771963
  0.2468249512256718  0.9936438853616170  0.8489922536771963
  0.2531722096261237  0.7468277603738740  0.3489971412006246
  0.4936443320712375  0.7468252172954762  0.3489921341327366
  0.2531747767045234  0.5063556429287641  0.3489921341327366
  0.7528994013069064  0.2471005726930985  0.1500095293766867
  0.7528987357531778  0.0057895175817353  0.1500108647275753
  0.9942105004182663  0.2471012172468216  0.1500108647275753
  0.7471008311359657  0.2528992328640398  0.6500095735921054
  0.7471015703567472  0.4942109979790711  0.6500109359495938
  0.5057890180209300  0.2528984696432564  0.6500109359495938
  0.7468278303738798  0.2531722336261257  0.8489971852006216
  0.5063556649287588  0.2531747767045234  0.8489921781327332
  0.7468252632954800  0.4936443510712427  0.8489921781327332
  0.7531723490558038  0.2468276249442010  0.3489971984914580
  0.9936439643616128  0.2468249772256740  0.3489922096771997
  0.7531749757743257  0.0063560536383885  0.3489922096771997
  0.7528993491011360  0.7471006848055939  0.1500095549498303
  0.7528985930281566  0.5057892497991817  0.1500109236006098
  0.9942106181187041  0.7471013612022828  0.1500108949637267
  0.7471007538055960  0.7528994131011342  0.6500095219498310
  0.7471013802022879  0.9942105841187084  0.6500108619637275
  0.5057892697991763  0.7528986330281529  0.6500108906006106
  0.7468277779984034  0.7531723721861441  0.8489972243740435
  0.5063558641933565  0.7531749047181479  0.8489922077857919
  0.7468251113805692  0.9936440158436173  0.8489922342549654
  0.7531723081861459  0.7468277089984012  0.3489971803740464
  0.9936440498436130  0.7468250923805640  0.3489921902549687
  0.7531748647181516  0.5063558441933620  0.3489921637857952
  0.3333385382520502  0.1666622042743172  0.8122177997871356
  0.1666622102743106  0.3333385592520484  0.3122177997871357
  0.1666693831438194  0.3333315292252835  0.1862613576144143
  0.3333315082252853  0.1666693771438260  0.6862613356144125
  0.3333382334539150  0.6666617685460851  0.8122177770698480
  0.1666620164860718  0.8333379885139250  0.3122178147489061
  0.1666691470665496  0.8333308579334473  0.1862613400360559
  0.3333311418158830  0.6666688601841171  0.6862613620043392
  0.8333379105139257  0.1666619924860769  0.8122178147488990
  0.6666617755460821  0.3333382494539163  0.3122177770698480
  0.6666688671841141  0.3333311578158843  0.1862613840043409
  0.8333307799334480  0.1666691230665548  0.6862613180360542
  0.8333377457256858  0.6666614587479530  0.8122177997871356
  0.6666614947479560  0.8333377767256848  0.3122177997871357
  0.6666685247747208  0.8333306038561761  0.1862613576144143
  0.8333305728561771  0.6666684887747178  0.6862613356144125
 
  0.00000000E+00  0.00000000E+00  0.00000000E+00
  0.00000000E+00  0.00000000E+00  0.00000000E+00
  0.00000000E+00  0.00000000E+00  0.00000000E+00
  0.00000000E+00  0.00000000E+00  0.00000000E+00
  0.00000000E+00  0.00000000E+00  0.00000000E+00
  0.00000000E+00  0.00000000E+00  0.00000000E+00
  0.00000000E+00  0.00000000E+00  0.00000000E+00
  0.00000000E+00  0.00000000E+00  0.00000000E+00
  0.00000000E+00  0.00000000E+00  0.00000000E+00
  0.00000000E+00  0.00000000E+00  0.00000000E+00
  0.00000000E+00  0.00000000E+00  0.00000000E+00
  0.00000000E+00  0.00000000E+00  0.00000000E+00
  0.00000000E+00  0.00000000E+00  0.00000000E+00
  0.00000000E+00  0.00000000E+00  0.00000000E+00
  0.00000000E+00  0.00000000E+00  0.00000000E+00
  0.00000000E+00  0.00000000E+00  0.00000000E+00
  0.00000000E+00  0.00000000E+00  0.00000000E+00
  0.00000000E+00  0.00000000E+00  0.00000000E+00
  0.00000000E+00  0.00000000E+00  0.00000000E+00
  0.00000000E+00  0.00000000E+00  0.00000000E+00
  0.00000000E+00  0.00000000E+00  0.00000000E+00
  0.00000000E+00  0.00000000E+00  0.00000000E+00
  0.00000000E+00  0.00000000E+00  0.00000000E+00
  0.00000000E+00  0.00000000E+00  0.00000000E+00
  0.00000000E+00  0.00000000E+00  0.00000000E+00
  0.00000000E+00  0.00000000E+00  0.00000000E+00
  0.00000000E+00  0.00000000E+00  0.00000000E+00
  0.00000000E+00  0.00000000E+00  0.00000000E+00
  0.00000000E+00  0.00000000E+00  0.00000000E+00
  0.00000000E+00  0.00000000E+00  0.00000000E+00
  0.00000000E+00  0.00000000E+00  0.00000000E+00
  0.00000000E+00  0.00000000E+00  0.00000000E+00
  0.00000000E+00  0.00000000E+00  0.00000000E+00
  0.00000000E+00  0.00000000E+00  0.00000000E+00
  0.00000000E+00  0.00000000E+00  0.00000000E+00
  0.00000000E+00  0.00000000E+00  0.00000000E+00
  0.00000000E+00  0.00000000E+00  0.00000000E+00
  0.00000000E+00  0.00000000E+00  0.00000000E+00
  0.00000000E+00  0.00000000E+00  0.00000000E+00
  0.00000000E+00  0.00000000E+00  0.00000000E+00
  0.00000000E+00  0.00000000E+00  0.00000000E+00
  0.00000000E+00  0.00000000E+00  0.00000000E+00
  0.00000000E+00  0.00000000E+00  0.00000000E+00
  0.00000000E+00  0.00000000E+00  0.00000000E+00
  0.00000000E+00  0.00000000E+00  0.00000000E+00
  0.00000000E+00  0.00000000E+00  0.00000000E+00
  0.00000000E+00  0.00000000E+00  0.00000000E+00
  0.00000000E+00  0.00000000E+00  0.00000000E+00
  0.00000000E+00  0.00000000E+00  0.00000000E+00
  0.00000000E+00  0.00000000E+00  0.00000000E+00
  0.00000000E+00  0.00000000E+00  0.00000000E+00
  0.00000000E+00  0.00000000E+00  0.00000000E+00
  0.00000000E+00  0.00000000E+00  0.00000000E+00
  0.00000000E+00  0.00000000E+00  0.00000000E+00
  0.00000000E+00  0.00000000E+00  0.00000000E+00
  0.00000000E+00  0.00000000E+00  0.00000000E+00
  0.00000000E+00  0.00000000E+00  0.00000000E+00
  0.00000000E+00  0.00000000E+00  0.00000000E+00
  0.00000000E+00  0.00000000E+00  0.00000000E+00
  0.00000000E+00  0.00000000E+00  0.00000000E+00
  0.00000000E+00  0.00000000E+00  0.00000000E+00
  0.00000000E+00  0.00000000E+00  0.00000000E+00
  0.00000000E+00  0.00000000E+00  0.00000000E+00
  0.00000000E+00  0.00000000E+00  0.00000000E+00
  0.00000000E+00  0.00000000E+00  0.00000000E+00
  0.00000000E+00  0.00000000E+00  0.00000000E+00
  0.00000000E+00  0.00000000E+00  0.00000000E+00
  0.00000000E+00  0.00000000E+00  0.00000000E+00
  0.00000000E+00  0.00000000E+00  0.00000000E+00
  0.00000000E+00  0.00000000E+00  0.00000000E+00
  0.00000000E+00  0.00000000E+00  0.00000000E+00
  0.00000000E+00  0.00000000E+00  0.00000000E+00
  0.00000000E+00  0.00000000E+00  0.00000000E+00
  0.00000000E+00  0.00000000E+00  0.00000000E+00
  0.00000000E+00  0.00000000E+00  0.00000000E+00
  0.00000000E+00  0.00000000E+00  0.00000000E+00
  0.00000000E+00  0.00000000E+00  0.00000000E+00
  0.00000000E+00  0.00000000E+00  0.00000000E+00
  0.00000000E+00  0.00000000E+00  0.00000000E+00
  0.00000000E+00  0.00000000E+00  0.00000000E+00
  0.00000000E+00  0.00000000E+00  0.00000000E+00
  0.00000000E+00  0.00000000E+00  0.00000000E+00
  0.00000000E+00  0.00000000E+00  0.00000000E+00
  0.00000000E+00  0.00000000E+00  0.00000000E+00
  0.00000000E+00  0.00000000E+00  0.00000000E+00
  0.00000000E+00  0.00000000E+00  0.00000000E+00
  0.00000000E+00  0.00000000E+00  0.00000000E+00
  0.00000000E+00  0.00000000E+00  0.00000000E+00
  0.00000000E+00  0.00000000E+00  0.00000000E+00
  0.00000000E+00  0.00000000E+00  0.00000000E+00
  0.00000000E+00  0.00000000E+00  0.00000000E+00
  0.00000000E+00  0.00000000E+00  0.00000000E+00
  0.00000000E+00  0.00000000E+00  0.00000000E+00
  0.00000000E+00  0.00000000E+00  0.00000000E+00
  0.00000000E+00  0.00000000E+00  0.00000000E+00
  0.00000000E+00  0.00000000E+00  0.00000000E+00
  0.00000000E+00  0.00000000E+00  0.00000000E+00
  0.00000000E+00  0.00000000E+00  0.00000000E+00
  0.00000000E+00  0.00000000E+00  0.00000000E+00
  0.00000000E+00  0.00000000E+00  0.00000000E+00
  0.00000000E+00  0.00000000E+00  0.00000000E+00
  0.00000000E+00  0.00000000E+00  0.00000000E+00
  0.00000000E+00  0.00000000E+00  0.00000000E+00
  0.00000000E+00  0.00000000E+00  0.00000000E+00
  0.00000000E+00  0.00000000E+00  0.00000000E+00
  0.00000000E+00  0.00000000E+00  0.00000000E+00
  0.00000000E+00  0.00000000E+00  0.00000000E+00
  0.00000000E+00  0.00000000E+00  0.00000000E+00
  0.00000000E+00  0.00000000E+00  0.00000000E+00
  0.00000000E+00  0.00000000E+00  0.00000000E+00
  0.00000000E+00  0.00000000E+00  0.00000000E+00
  0.00000000E+00  0.00000000E+00  0.00000000E+00
  0.00000000E+00  0.00000000E+00  0.00000000E+00
  0.00000000E+00  0.00000000E+00  0.00000000E+00
  0.00000000E+00  0.00000000E+00  0.00000000E+00
  0.00000000E+00  0.00000000E+00  0.00000000E+00
  0.00000000E+00  0.00000000E+00  0.00000000E+00
  0.00000000E+00  0.00000000E+00  0.00000000E+00
  0.00000000E+00  0.00000000E+00  0.00000000E+00
  0.00000000E+00  0.00000000E+00  0.00000000E+00
  0.00000000E+00  0.00000000E+00  0.00000000E+00
  0.00000000E+00  0.00000000E+00  0.00000000E+00
  0.00000000E+00  0.00000000E+00  0.00000000E+00
  0.00000000E+00  0.00000000E+00  0.00000000E+00
  0.00000000E+00  0.00000000E+00  0.00000000E+00
  0.00000000E+00  0.00000000E+00  0.00000000E+00
  0.00000000E+00  0.00000000E+00  0.00000000E+00
  0.00000000E+00  0.00000000E+00  0.00000000E+00
  0.00000000E+00  0.00000000E+00  0.00000000E+00
  0.00000000E+00  0.00000000E+00  0.00000000E+00
  0.00000000E+00  0.00000000E+00  0.00000000E+00
  0.00000000E+00  0.00000000E+00  0.00000000E+00
  0.00000000E+00  0.00000000E+00  0.00000000E+00
  0.00000000E+00  0.00000000E+00  0.00000000E+00
  0.00000000E+00  0.00000000E+00  0.00000000E+00
  0.00000000E+00  0.00000000E+00  0.00000000E+00
  0.00000000E+00  0.00000000E+00  0.00000000E+00
  0.00000000E+00  0.00000000E+00  0.00000000E+00
  0.00000000E+00  0.00000000E+00  0.00000000E+00
  0.00000000E+00  0.00000000E+00  0.00000000E+00
  0.00000000E+00  0.00000000E+00  0.00000000E+00
  0.00000000E+00  0.00000000E+00  0.00000000E+00
  0.00000000E+00  0.00000000E+00  0.00000000E+00
  0.00000000E+00  0.00000000E+00  0.00000000E+00
  0.00000000E+00  0.00000000E+00  0.00000000E+00
  0.00000000E+00  0.00000000E+00  0.00000000E+00
  0.00000000E+00  0.00000000E+00  0.00000000E+00
  0.00000000E+00  0.00000000E+00  0.00000000E+00
  0.00000000E+00  0.00000000E+00  0.00000000E+00
  0.00000000E+00  0.00000000E+00  0.00000000E+00
  0.00000000E+00  0.00000000E+00  0.00000000E+00
  0.00000000E+00  0.00000000E+00  0.00000000E+00
  0.00000000E+00  0.00000000E+00  0.00000000E+00
  0.00000000E+00  0.00000000E+00  0.00000000E+00
  0.00000000E+00  0.00000000E+00  0.00000000E+00
  0.00000000E+00  0.00000000E+00  0.00000000E+00
  0.00000000E+00  0.00000000E+00  0.00000000E+00
  0.00000000E+00  0.00000000E+00  0.00000000E+00
  0.00000000E+00  0.00000000E+00  0.00000000E+00
  0.00000000E+00  0.00000000E+00  0.00000000E+00
  0.00000000E+00  0.00000000E+00  0.00000000E+00
  0.00000000E+00  0.00000000E+00  0.00000000E+00
  0.00000000E+00  0.00000000E+00  0.00000000E+00
  0.00000000E+00  0.00000000E+00  0.00000000E+00
  0.00000000E+00  0.00000000E+00  0.00000000E+00
  0.00000000E+00  0.00000000E+00  0.00000000E+00
  0.00000000E+00  0.00000000E+00  0.00000000E+00
  0.00000000E+00  0.00000000E+00  0.00000000E+00
  0.00000000E+00  0.00000000E+00  0.00000000E+00
  0.00000000E+00  0.00000000E+00  0.00000000E+00
  0.00000000E+00  0.00000000E+00  0.00000000E+00
  0.00000000E+00  0.00000000E+00  0.00000000E+00
  0.00000000E+00  0.00000000E+00  0.00000000E+00
  0.00000000E+00  0.00000000E+00  0.00000000E+00
  0.00000000E+00  0.00000000E+00  0.00000000E+00
  0.00000000E+00  0.00000000E+00  0.00000000E+00
  0.00000000E+00  0.00000000E+00  0.00000000E+00
  0.00000000E+00  0.00000000E+00  0.00000000E+00
  0.00000000E+00  0.00000000E+00  0.00000000E+00
  0.00000000E+00  0.00000000E+00  0.00000000E+00
  0.00000000E+00  0.00000000E+00  0.00000000E+00
  0.00000000E+00  0.00000000E+00  0.00000000E+00
  0.00000000E+00  0.00000000E+00  0.00000000E+00
  0.00000000E+00  0.00000000E+00  0.00000000E+00
  0.00000000E+00  0.00000000E+00  0.00000000E+00
  0.00000000E+00  0.00000000E+00  0.00000000E+00
  0.00000000E+00  0.00000000E+00  0.00000000E+00
  0.00000000E+00  0.00000000E+00  0.00000000E+00
  0.00000000E+00  0.00000000E+00  0.00000000E+00
  0.00000000E+00  0.00000000E+00  0.00000000E+00
  0.00000000E+00  0.00000000E+00  0.00000000E+00
  0.00000000E+00  0.00000000E+00  0.00000000E+00
  0.00000000E+00  0.00000000E+00  0.00000000E+00
  0.00000000E+00  0.00000000E+00  0.00000000E+00
  0.00000000E+00  0.00000000E+00  0.00000000E+00
  0.00000000E+00  0.00000000E+00  0.00000000E+00
  0.00000000E+00  0.00000000E+00  0.00000000E+00
  0.00000000E+00  0.00000000E+00  0.00000000E+00
  0.00000000E+00  0.00000000E+00  0.00000000E+00
  0.00000000E+00  0.00000000E+00  0.00000000E+00
  0.00000000E+00  0.00000000E+00  0.00000000E+00
  0.00000000E+00  0.00000000E+00  0.00000000E+00
  0.00000000E+00  0.00000000E+00  0.00000000E+00
  0.00000000E+00  0.00000000E+00  0.00000000E+00
  0.00000000E+00  0.00000000E+00  0.00000000E+00
  0.00000000E+00  0.00000000E+00  0.00000000E+00
  0.00000000E+00  0.00000000E+00  0.00000000E+00
  0.00000000E+00  0.00000000E+00  0.00000000E+00
  0.00000000E+00  0.00000000E+00  0.00000000E+00
  0.00000000E+00  0.00000000E+00  0.00000000E+00
  0.00000000E+00  0.00000000E+00  0.00000000E+00
  0.00000000E+00  0.00000000E+00  0.00000000E+00
  0.00000000E+00  0.00000000E+00  0.00000000E+00
  0.00000000E+00  0.00000000E+00  0.00000000E+00
  0.00000000E+00  0.00000000E+00  0.00000000E+00
  0.00000000E+00  0.00000000E+00  0.00000000E+00
  0.00000000E+00  0.00000000E+00  0.00000000E+00
  0.00000000E+00  0.00000000E+00  0.00000000E+00
  0.00000000E+00  0.00000000E+00  0.00000000E+00
  0.00000000E+00  0.00000000E+00  0.00000000E+00
  0.00000000E+00  0.00000000E+00  0.00000000E+00
  0.00000000E+00  0.00000000E+00  0.00000000E+00
  0.00000000E+00  0.00000000E+00  0.00000000E+00
  0.00000000E+00  0.00000000E+00  0.00000000E+00
  0.00000000E+00  0.00000000E+00  0.00000000E+00
  0.00000000E+00  0.00000000E+00  0.00000000E+00
  0.00000000E+00  0.00000000E+00  0.00000000E+00
  0.00000000E+00  0.00000000E+00  0.00000000E+00
  0.00000000E+00  0.00000000E+00  0.00000000E+00
  0.00000000E+00  0.00000000E+00  0.00000000E+00
  0.00000000E+00  0.00000000E+00  0.00000000E+00
  0.00000000E+00  0.00000000E+00  0.00000000E+00
  0.00000000E+00  0.00000000E+00  0.00000000E+00
  0.00000000E+00  0.00000000E+00  0.00000000E+00
  0.00000000E+00  0.00000000E+00  0.00000000E+00
  0.00000000E+00  0.00000000E+00  0.00000000E+00
  0.00000000E+00  0.00000000E+00  0.00000000E+00
  0.00000000E+00  0.00000000E+00  0.00000000E+00
  0.00000000E+00  0.00000000E+00  0.00000000E+00
  0.00000000E+00  0.00000000E+00  0.00000000E+00
  0.00000000E+00  0.00000000E+00  0.00000000E+00
  0.00000000E+00  0.00000000E+00  0.00000000E+00
  0.00000000E+00  0.00000000E+00  0.00000000E+00
  0.00000000E+00  0.00000000E+00  0.00000000E+00
  0.00000000E+00  0.00000000E+00  0.00000000E+00
  0.00000000E+00  0.00000000E+00  0.00000000E+00
  0.00000000E+00  0.00000000E+00  0.00000000E+00
  0.00000000E+00  0.00000000E+00  0.00000000E+00
  0.00000000E+00  0.00000000E+00  0.00000000E+00
  0.00000000E+00  0.00000000E+00  0.00000000E+00
  0.00000000E+00  0.00000000E+00  0.00000000E+00
  0.00000000E+00  0.00000000E+00  0.00000000E+00
  0.00000000E+00  0.00000000E+00  0.00000000E+00
  0.00000000E+00  0.00000000E+00  0.00000000E+00
  0.00000000E+00  0.00000000E+00  0.00000000E+00
  0.00000000E+00  0.00000000E+00  0.00000000E+00
