supercell generated structure. e_col = 0
   1.00000000000000     
    11.4574989423404912    0.0000000000000000    0.0000000000000000
    -5.7287494711702456    9.9224851478651708    0.0000000000000000
     0.0000000000000000    0.0000000000000000   22.4047041953603063
   Al   Ca   Mg   O    Ti
    64     8    16   152    16
Direct
  0.0000013457879007  0.9999986542120993  0.0003121806122621
  0.9999986542120993  0.0000013457879007  0.5003121806122692
  0.0000013487421242  0.4999986579051168  0.0003121859242725
  0.9999986472578755  0.5000013360948898  0.5003121859242725
  0.5000013390948865  0.9999986492578756  0.0003121859242725
  0.4999986609051135  0.0000013507421244  0.5003121859242725
  0.5000013402473371  0.4999986547526660  0.0003121896372065
  0.4999986557526626  0.5000013392473406  0.5003121896372136
  0.9999987475555301  0.0000012524444699  0.2388490015019684
  0.0000012524444699  0.9999987475555301  0.7388489795019666
  0.9999988464929217  0.5000013871710323  0.2388489906752156
  0.0000011495070780  0.4999986068289743  0.7388489686752138
  0.4999986098289710  0.0000011515070781  0.2388489906752156
  0.5000013901710290  0.9999988484929219  0.7388489686752138
  0.4999986767726128  0.5000013182273904  0.2388489830498273
  0.5000013192273869  0.4999986757726163  0.7388489610498254
  0.4167490965658089  0.0832508735214290  0.1051073311787221
  0.4167490901162125  0.3334942755120451  0.1051070238788654
  0.1665059254143983  0.0832509937046879  0.1051070103755549
  0.0832508805214260  0.4167491235658076  0.6051073531787168
  0.0832509937046879  0.1665059284144021  0.6051070323755496
  0.3334942865120496  0.4167491191162114  0.6051070458788601
  0.0818244591078070  0.4181755476805336  0.8949198266906748
  0.3363544479537097  0.4181751883673570  0.8949214049208294
  0.0818249143303689  0.1636457452418085  0.8949214183654490
  0.4181755206805349  0.0818244521078100  0.3949197826906712
  0.1636457422418047  0.0818249143303689  0.3949213743654525
  0.4181751593673582  0.3363544369537053  0.3949213609208329
  0.4167490511332304  0.5832509138667703  0.1051073704477048
  0.4167489759391501  0.8334940141439162  0.1051070532562122
  0.1665059648560785  0.5832510180608494  0.1051070532562122
  0.0832508799852292  0.9167490670147771  0.6051073223361030
  0.0832508662223361  0.6665057086871400  0.6051070176691056
  0.3334942953128603  0.9167490767776698  0.6051070176691056
  0.0818244583320507  0.9181754886679556  0.8949198536107446
  0.3363544511019541  0.9181751406174854  0.8949214300383233
  0.0818248023825205  0.6636455528980463  0.8949214300383233
  0.4181754812880882  0.5818244837119124  0.3949197490391754
  0.1636457737996011  0.5818249330119514  0.3949213360018220
  0.4181750609880481  0.8363542052003936  0.3949213360018220
  0.9167490930147721  0.0832508769852254  0.1051073003361083
  0.9167491007776647  0.3334943103128580  0.1051069956691109
  0.6665056986871392  0.0832508672223327  0.1051069956691109
  0.5832509458667658  0.4167490801332292  0.6051073924476995
  0.5832510210608461  0.1665059798560833  0.6051070752562069
  0.8334939891439177  0.4167489759391501  0.6051070752562069
  0.5818245157119080  0.4181755102880871  0.8949197930391719
  0.8363541802004022  0.4181750609880481  0.8949213800018185
  0.5818249360119481  0.1636457887996059  0.8949213800018185
  0.9181755146679507  0.0818244553320469  0.3949198096107480
  0.6636455428980383  0.0818248033825171  0.3949213860383267
  0.9181751646174803  0.3363544661019517  0.3949213860383267
  0.9167490944785683  0.5832508704341919  0.1051073311787221
  0.9167490032953083  0.8334940655855974  0.1051070103755549
  0.6665057314879519  0.5832508748837881  0.1051070238788654
  0.5832508764341924  0.9167490704785735  0.6051073531787168
  0.5832508978837865  0.6665057434879529  0.6051070458788601
  0.8334940145856038  0.9167489502953146  0.6051070323755496
  0.5818244523194664  0.9181754918921925  0.8949198266906748
  0.8363541977581974  0.9181750296696336  0.8949214183654490
  0.5818248286326408  0.6636455820462857  0.8949214049208294
  0.9181755158921874  0.5818244463194659  0.3949197826906712
  0.6636455700462847  0.5818248056326425  0.3949213609208329
  0.9181750826696273  0.8363542487581981  0.3949213743654525
  0.3333057140696170  0.1666943090108788  0.2594369951626234
  0.1666943150108722  0.3333057350696151  0.7594370391626200
  0.3333057341116472  0.6666942678883458  0.2594369922861048
  0.1666943536136714  0.8333056513863255  0.7594370429628299
  0.8333055733863262  0.1666943296136765  0.2594369989628333
  0.6666942748883429  0.3333057501116485  0.7594370362861014
  0.8333056409891242  0.6666942829303864  0.2594369951626234
  0.6666943189303893  0.8333056719891232  0.7594370391626200
  0.1666678411773503  0.3333322911243286  0.0259342703323284
  0.3333322701243304  0.1666678351773569  0.5259342703323284
  0.3333343984862580  0.1666657015747504  0.9740548005771856
  0.1666657075747437  0.3333344194862562  0.4740548005771856
  0.1666678101907593  0.8333321948092305  0.0259342864725838
  0.3333322174323285  0.6666677845676716  0.5259342458816008
  0.3333343483544553  0.6666656536455449  0.9740548330058516
  0.1666656785747378  0.8333343264252591  0.4740547790508032
  0.6666677915676686  0.3333322334323299  0.0259342458816008
  0.8333321168092311  0.1666677861907715  0.5259342864725838
  0.8333342484252597  0.1666656545747429  0.9740547790508032
  0.6666656606455419  0.3333343643544566  0.4740548330058516
  0.6666677628756759  0.8333321458226450  0.0259342703323284
  0.8333321148226460  0.6666677268756729  0.5259342703323284
  0.8333342484252526  0.6666655985137453  0.9740548005771856
  0.6666656345137483  0.8333342794252516  0.4740548005771856
  0.0000008473580877  0.9999991526419123  0.1533125773094852
  0.9999991526419123  0.0000008473580877  0.6533125553094905
  0.0000006356511619  0.9999993643488381  0.8502593841326842
  0.9999993643488381  0.0000006356511619  0.3502593181326930
  0.0000008103338374  0.4999990926024367  0.1533125552075489
  0.9999991856661623  0.5000009013975699  0.6533125332075542
  0.0000006733118454  0.4999994216989734  0.8502594052592372
  0.9999993226881543  0.5000005723010332  0.3502593392592388
  0.5000009043975666  0.9999991876661625  0.1533125552075489
  0.4999990956024334  0.0000008123338375  0.6533125332075542
  0.5000005753010299  0.9999993246881544  0.8502594052592372
  0.4999994246989701  0.0000006753118456  0.3502593392592388
  0.5000008805847500  0.4999991144152531  0.1533125401983710
  0.4999991154152497  0.5000008795847535  0.6533125181983763
  0.5000005992018544  0.4999993957981488  0.8502594197161457
  0.4999993967981453  0.5000005982018578  0.3502593537161474
  0.1666672398619866  0.3333327090486335  0.9375962929886299
  0.3333326880486354  0.1666672338619932  0.4375962929886299
  0.3333348668296239  0.1666650437473933  0.0619267608193397
  0.1666650497473867  0.3333348878296221  0.5619267448193384
  0.1666672601457933  0.8333327448542036  0.9375962601150931
  0.3333327099251022  0.6666672920748979  0.4375963435661845
  0.3333348927142765  0.6666651092857165  0.0619266964178919
  0.1666650721535063  0.8333349328464976  0.5619267869933253
  0.6666672990748950  0.3333327259251035  0.9375963435661845
  0.8333326668542043  0.1666672361457984  0.4375962601150931
  0.8333348548464983  0.1666650481535115  0.0619268029933266
  0.6666651162857136  0.3333349087142778  0.5619266804178906
  0.6666673449513709  0.8333327471380088  0.9375962929886299
  0.8333327161380097  0.6666673089513679  0.4375962929886299
  0.8333349062526167  0.6666651301703723  0.0619267608193397
  0.6666651661703753  0.8333349372526158  0.5619267448193384
  0.0893367377811458  0.4106631988433023  0.2495135410328757
  0.0893524418560219  0.1786721974432766  0.2495142376777935
  0.3213275627318097  0.4106474203880595  0.2495142467442264
  0.4106631908433016  0.0893367267811485  0.7495134750328774
  0.4106474073880619  0.3213275527318089  0.7495141807442209
  0.1786721854432756  0.0893524288560243  0.7495141716777880
  0.0893366533595739  0.9106633306404319  0.2495135344803998
  0.0893524437639428  0.6786722895059185  0.2495142416849419
  0.3213276794940754  0.9106475322360623  0.2495142416849419
  0.4106631479018148  0.5893368120981819  0.7495134806490498
  0.4106474284419903  0.8213276309638786  0.7495141791963675
  0.1786723870361229  0.5893525395580070  0.7495141791963675
  0.5893368370981804  0.4106631579018156  0.2495135466490481
  0.5893525445580110  0.1786724000361204  0.2495142451963730
  0.8213276409638794  0.4106474304419905  0.2495142451963730
  0.9106633436404294  0.0893366633595747  0.7495134684804015
  0.9106475412360595  0.3213276794940754  0.7495141756849364
  0.6786723175059208  0.0893524617639443  0.7495141756849364
  0.5893367641566982  0.9106632672188582  0.2495135410328757
  0.5893525346119404  0.6786724162681850  0.2495142467442264
  0.8213278115567206  0.9106475651439823  0.2495142376777935
  0.9106632792188520  0.5893367711566952  0.7495134750328774
  0.9106475841439803  0.8213278335567225  0.7495141716777880
  0.6786724432681908  0.5893525496119381  0.7495141807442209
  0.0738542503545148  0.4261456389213549  0.0556106586243317
  0.0738544127708280  0.1477047761424046  0.0556104205030934
  0.3522951303842277  0.4261454986982045  0.0556103927065834
  0.4261456249213538  0.0738542563545082  0.5556106476243201
  0.4261454996982081  0.3522951233842235  0.5556103817065789
  0.1477047821424051  0.0738544127708280  0.5556104095030889
  0.4257643719539601  0.0742355372978096  0.9460642076251062
  0.1484741099410698  0.0742350426471816  0.9460641348710155
  0.4257648802559615  0.3515257892165593  0.9460641576302677
  0.0742355312978162  0.4257643859539613  0.4460642076251062
  0.3515257962165634  0.4257648792559579  0.4460641576302677
  0.0742350426471816  0.1484741039410764  0.4460641348710155
  0.0738542797216866  0.9261456852783141  0.0556106667797494
  0.0738544090359028  0.6477047963847795  0.0556103954840026
  0.3522951316152145  0.9261455589641017  0.0556103954840026
  0.4261456859532302  0.5738543140467698  0.5556106492098678
  0.4261455371949694  0.8522951787287880  0.5556104044452965
  0.1477048192712118  0.5738544568050301  0.5556104044452965
  0.4257644201767974  0.5742355798232026  0.9460642038855482
  0.1484741452027052  0.5742350742284543  0.9460641365549165
  0.4257649197715452  0.8515258527972946  0.9460641365549165
  0.0742355466927407  0.9257644183072600  0.4460642034357534
  0.3515257961336289  0.9257649219942223  0.4460641560979681
  0.0742350460057821  0.6484741318663652  0.4460641560979681
  0.5738542900467678  0.4261456799532297  0.0556106602098723
  0.5738544598050268  0.1477048152712115  0.0556104154453010
  0.8522952097287870  0.4261455371949694  0.0556104154453010
  0.9261457602783096  0.0738543087216854  0.5556106557797449
  0.9261456059641020  0.3522951476152159  0.5556103844839981
  0.6477048223847817  0.0738544350358978  0.5556103844839981
  0.9257644933072555  0.0742355756927395  0.9460642034357534
  0.6484741578663744  0.0742350720057772  0.9460641560979681
  0.9257649689942227  0.3515258121336302  0.9460641560979681
  0.5742355558232006  0.4257644141767969  0.4460642038855482
  0.8515258837972937  0.4257649197715452  0.4460641365549165
  0.5742350772284510  0.1484741412027049  0.4460641365549165
  0.5738543290786424  0.9261457376454914  0.0556106586243317
  0.5738544723017966  0.6477048206157718  0.0556103927065834
  0.8522952048575902  0.9261455812291715  0.0556104205030934
  0.9261457676454867  0.5738543550786446  0.5556106476243201
  0.9261456272291682  0.8522952178575949  0.5556104095030889
  0.6477048456157775  0.5738544953017950  0.5556103817065789
  0.9257644867021853  0.5742356080460382  0.9460642076251062
  0.6484741797834417  0.5742351147440417  0.9460641576302677
  0.9257649973528146  0.8515258900589302  0.9460641348710155
  0.5742355820460361  0.9257644567021899  0.4460642076251062
  0.8515258770589256  0.9257649513528179  0.4460641348710155
  0.5742350917440433  0.6484741547834361  0.4460641576302677
  0.2529877973655488  0.2470120917277185  0.1501295963647635
  0.2529872578076251  0.0059698217342969  0.1501301219827269
  0.4940303033478202  0.2470127349619347  0.1501301506196100
  0.2470120947277152  0.2529877983655524  0.6501295633647644
  0.2470127349619347  0.4940302773478251  0.6501301176196108
  0.0059698237342971  0.2529872588076287  0.6501300889827277
  0.2467662631176779  0.2532336466977725  0.8489519948335982
  0.0064739910748912  0.2532350794479967  0.8489492498022670
  0.2467649114532904  0.4935260838881419  0.8489492233330935
  0.2532336456977688  0.2467662601176812  0.3489519508336016
  0.4935261098881369  0.2467649114532904  0.3489491793330970
  0.2532350784479931  0.0064739890748911  0.3489492058022705
  0.2529876980351844  0.7470122719648131  0.1501296480070380
  0.2529870956531681  0.5059694628739351  0.1501301959685932
  0.4940305121260664  0.7470128983468314  0.1501301959685932
  0.2470121065219502  0.7529879104780477  0.6501295377916207
  0.2470125652369077  0.9940299545652707  0.6501300587465764
  0.0059700064347297  0.7529874027630896  0.6501300587465764
  0.2467662862480253  0.7532337307519725  0.8489520129510097
  0.0064741415568861  0.7532351946028868  0.8489492692244980
  0.2467647733971106  0.9935258194431142  0.8489492692244980
  0.2532335713222977  0.7467663986776998  0.3489519116601798
  0.4935262661527346  0.7467650394669150  0.3489491496800383
  0.2532349545330845  0.5064737088472668  0.3489491496800383
  0.7529878904780531  0.2470120835219518  0.1501295707916199
  0.7529873617630898  0.0059699844347350  0.1501300917465755
  0.9940300335652665  0.2470125912369099  0.1501300917465755
  0.7470123419648189  0.2529877220351864  0.6501296150070388
  0.7470129443468352  0.4940305311260715  0.6501301629685940
  0.5059694848739298  0.2529870956531681  0.6501301629685940
  0.7467664686777056  0.2532335953222997  0.8489519556601763
  0.5064737308472615  0.2532349545330845  0.8489491936800349
  0.7467650854669188  0.4935262851527398  0.8489491936800349
  0.7532337107519780  0.2467662632480270  0.3489519689510132
  0.9935258984431101  0.2467647993971127  0.3489492252245014
  0.7532351536028870  0.0064741195568914  0.3489492252245014
  0.7529878382722828  0.7470121956344471  0.1501295963647635
  0.7529872190380686  0.5059697166521815  0.1501301506196100
  0.9940301512657044  0.7470127351923708  0.1501301219827269
  0.7470122646344493  0.7529879022722810  0.6501295633647644
  0.7470127541923759  0.9940301172657087  0.6501300889827277
  0.5059697366521760  0.7529872590380648  0.6501301176196108
  0.7467664163022292  0.7532337338823183  0.8489519948335982
  0.5064739301118593  0.7532350825467091  0.8489492233330935
  0.7467649335520079  0.9935259499251146  0.8489492498022670
  0.7532336698823201  0.7467663473022270  0.3489519508336016
  0.9935259839251103  0.7467649145520028  0.3489492058022705
  0.7532350425467129  0.5064739101118647  0.3489491793330970
  0.3333368591487229  0.1666638833776446  0.8122671181786814
  0.1666638893776380  0.3333368801487211  0.3122671181786814
  0.1666682562697517  0.3333326560993513  0.1863205123805187
  0.3333326350993531  0.1666682502697583  0.6863204903805169
  0.3333365543505877  0.6666634476494124  0.8122670954613938
  0.1666636955893992  0.8333363094105977  0.3122671331404518
  0.1666680201924819  0.8333319848075149  0.1863204948021604
  0.3333322686899507  0.6666677333100495  0.6863205167704436
  0.8333362314105983  0.1666636715894043  0.8122671331404447
  0.6666634546494095  0.3333365703505891  0.3122670954613938
  0.6666677403100465  0.3333322846899520  0.1863205387704454
  0.8333319068075156  0.1666679961924871  0.6863204728021586
  0.8333360666223584  0.6666631378512804  0.8122671181786814
  0.6666631738512834  0.8333360976223574  0.3122671181786814
  0.6666673979006532  0.8333317307302437  0.1863205123805187
  0.8333316997302447  0.6666673619006502  0.6863204903805169
 
  0.00000000E+00  0.00000000E+00  0.00000000E+00
  0.00000000E+00  0.00000000E+00  0.00000000E+00
  0.00000000E+00  0.00000000E+00  0.00000000E+00
  0.00000000E+00  0.00000000E+00  0.00000000E+00
  0.00000000E+00  0.00000000E+00  0.00000000E+00
  0.00000000E+00  0.00000000E+00  0.00000000E+00
  0.00000000E+00  0.00000000E+00  0.00000000E+00
  0.00000000E+00  0.00000000E+00  0.00000000E+00
  0.00000000E+00  0.00000000E+00  0.00000000E+00
  0.00000000E+00  0.00000000E+00  0.00000000E+00
  0.00000000E+00  0.00000000E+00  0.00000000E+00
  0.00000000E+00  0.00000000E+00  0.00000000E+00
  0.00000000E+00  0.00000000E+00  0.00000000E+00
  0.00000000E+00  0.00000000E+00  0.00000000E+00
  0.00000000E+00  0.00000000E+00  0.00000000E+00
  0.00000000E+00  0.00000000E+00  0.00000000E+00
  0.00000000E+00  0.00000000E+00  0.00000000E+00
  0.00000000E+00  0.00000000E+00  0.00000000E+00
  0.00000000E+00  0.00000000E+00  0.00000000E+00
  0.00000000E+00  0.00000000E+00  0.00000000E+00
  0.00000000E+00  0.00000000E+00  0.00000000E+00
  0.00000000E+00  0.00000000E+00  0.00000000E+00
  0.00000000E+00  0.00000000E+00  0.00000000E+00
  0.00000000E+00  0.00000000E+00  0.00000000E+00
  0.00000000E+00  0.00000000E+00  0.00000000E+00
  0.00000000E+00  0.00000000E+00  0.00000000E+00
  0.00000000E+00  0.00000000E+00  0.00000000E+00
  0.00000000E+00  0.00000000E+00  0.00000000E+00
  0.00000000E+00  0.00000000E+00  0.00000000E+00
  0.00000000E+00  0.00000000E+00  0.00000000E+00
  0.00000000E+00  0.00000000E+00  0.00000000E+00
  0.00000000E+00  0.00000000E+00  0.00000000E+00
  0.00000000E+00  0.00000000E+00  0.00000000E+00
  0.00000000E+00  0.00000000E+00  0.00000000E+00
  0.00000000E+00  0.00000000E+00  0.00000000E+00
  0.00000000E+00  0.00000000E+00  0.00000000E+00
  0.00000000E+00  0.00000000E+00  0.00000000E+00
  0.00000000E+00  0.00000000E+00  0.00000000E+00
  0.00000000E+00  0.00000000E+00  0.00000000E+00
  0.00000000E+00  0.00000000E+00  0.00000000E+00
  0.00000000E+00  0.00000000E+00  0.00000000E+00
  0.00000000E+00  0.00000000E+00  0.00000000E+00
  0.00000000E+00  0.00000000E+00  0.00000000E+00
  0.00000000E+00  0.00000000E+00  0.00000000E+00
  0.00000000E+00  0.00000000E+00  0.00000000E+00
  0.00000000E+00  0.00000000E+00  0.00000000E+00
  0.00000000E+00  0.00000000E+00  0.00000000E+00
  0.00000000E+00  0.00000000E+00  0.00000000E+00
  0.00000000E+00  0.00000000E+00  0.00000000E+00
  0.00000000E+00  0.00000000E+00  0.00000000E+00
  0.00000000E+00  0.00000000E+00  0.00000000E+00
  0.00000000E+00  0.00000000E+00  0.00000000E+00
  0.00000000E+00  0.00000000E+00  0.00000000E+00
  0.00000000E+00  0.00000000E+00  0.00000000E+00
  0.00000000E+00  0.00000000E+00  0.00000000E+00
  0.00000000E+00  0.00000000E+00  0.00000000E+00
  0.00000000E+00  0.00000000E+00  0.00000000E+00
  0.00000000E+00  0.00000000E+00  0.00000000E+00
  0.00000000E+00  0.00000000E+00  0.00000000E+00
  0.00000000E+00  0.00000000E+00  0.00000000E+00
  0.00000000E+00  0.00000000E+00  0.00000000E+00
  0.00000000E+00  0.00000000E+00  0.00000000E+00
  0.00000000E+00  0.00000000E+00  0.00000000E+00
  0.00000000E+00  0.00000000E+00  0.00000000E+00
  0.00000000E+00  0.00000000E+00  0.00000000E+00
  0.00000000E+00  0.00000000E+00  0.00000000E+00
  0.00000000E+00  0.00000000E+00  0.00000000E+00
  0.00000000E+00  0.00000000E+00  0.00000000E+00
  0.00000000E+00  0.00000000E+00  0.00000000E+00
  0.00000000E+00  0.00000000E+00  0.00000000E+00
  0.00000000E+00  0.00000000E+00  0.00000000E+00
  0.00000000E+00  0.00000000E+00  0.00000000E+00
  0.00000000E+00  0.00000000E+00  0.00000000E+00
  0.00000000E+00  0.00000000E+00  0.00000000E+00
  0.00000000E+00  0.00000000E+00  0.00000000E+00
  0.00000000E+00  0.00000000E+00  0.00000000E+00
  0.00000000E+00  0.00000000E+00  0.00000000E+00
  0.00000000E+00  0.00000000E+00  0.00000000E+00
  0.00000000E+00  0.00000000E+00  0.00000000E+00
  0.00000000E+00  0.00000000E+00  0.00000000E+00
  0.00000000E+00  0.00000000E+00  0.00000000E+00
  0.00000000E+00  0.00000000E+00  0.00000000E+00
  0.00000000E+00  0.00000000E+00  0.00000000E+00
  0.00000000E+00  0.00000000E+00  0.00000000E+00
  0.00000000E+00  0.00000000E+00  0.00000000E+00
  0.00000000E+00  0.00000000E+00  0.00000000E+00
  0.00000000E+00  0.00000000E+00  0.00000000E+00
  0.00000000E+00  0.00000000E+00  0.00000000E+00
  0.00000000E+00  0.00000000E+00  0.00000000E+00
  0.00000000E+00  0.00000000E+00  0.00000000E+00
  0.00000000E+00  0.00000000E+00  0.00000000E+00
  0.00000000E+00  0.00000000E+00  0.00000000E+00
  0.00000000E+00  0.00000000E+00  0.00000000E+00
  0.00000000E+00  0.00000000E+00  0.00000000E+00
  0.00000000E+00  0.00000000E+00  0.00000000E+00
  0.00000000E+00  0.00000000E+00  0.00000000E+00
  0.00000000E+00  0.00000000E+00  0.00000000E+00
  0.00000000E+00  0.00000000E+00  0.00000000E+00
  0.00000000E+00  0.00000000E+00  0.00000000E+00
  0.00000000E+00  0.00000000E+00  0.00000000E+00
  0.00000000E+00  0.00000000E+00  0.00000000E+00
  0.00000000E+00  0.00000000E+00  0.00000000E+00
  0.00000000E+00  0.00000000E+00  0.00000000E+00
  0.00000000E+00  0.00000000E+00  0.00000000E+00
  0.00000000E+00  0.00000000E+00  0.00000000E+00
  0.00000000E+00  0.00000000E+00  0.00000000E+00
  0.00000000E+00  0.00000000E+00  0.00000000E+00
  0.00000000E+00  0.00000000E+00  0.00000000E+00
  0.00000000E+00  0.00000000E+00  0.00000000E+00
  0.00000000E+00  0.00000000E+00  0.00000000E+00
  0.00000000E+00  0.00000000E+00  0.00000000E+00
  0.00000000E+00  0.00000000E+00  0.00000000E+00
  0.00000000E+00  0.00000000E+00  0.00000000E+00
  0.00000000E+00  0.00000000E+00  0.00000000E+00
  0.00000000E+00  0.00000000E+00  0.00000000E+00
  0.00000000E+00  0.00000000E+00  0.00000000E+00
  0.00000000E+00  0.00000000E+00  0.00000000E+00
  0.00000000E+00  0.00000000E+00  0.00000000E+00
  0.00000000E+00  0.00000000E+00  0.00000000E+00
  0.00000000E+00  0.00000000E+00  0.00000000E+00
  0.00000000E+00  0.00000000E+00  0.00000000E+00
  0.00000000E+00  0.00000000E+00  0.00000000E+00
  0.00000000E+00  0.00000000E+00  0.00000000E+00
  0.00000000E+00  0.00000000E+00  0.00000000E+00
  0.00000000E+00  0.00000000E+00  0.00000000E+00
  0.00000000E+00  0.00000000E+00  0.00000000E+00
  0.00000000E+00  0.00000000E+00  0.00000000E+00
  0.00000000E+00  0.00000000E+00  0.00000000E+00
  0.00000000E+00  0.00000000E+00  0.00000000E+00
  0.00000000E+00  0.00000000E+00  0.00000000E+00
  0.00000000E+00  0.00000000E+00  0.00000000E+00
  0.00000000E+00  0.00000000E+00  0.00000000E+00
  0.00000000E+00  0.00000000E+00  0.00000000E+00
  0.00000000E+00  0.00000000E+00  0.00000000E+00
  0.00000000E+00  0.00000000E+00  0.00000000E+00
  0.00000000E+00  0.00000000E+00  0.00000000E+00
  0.00000000E+00  0.00000000E+00  0.00000000E+00
  0.00000000E+00  0.00000000E+00  0.00000000E+00
  0.00000000E+00  0.00000000E+00  0.00000000E+00
  0.00000000E+00  0.00000000E+00  0.00000000E+00
  0.00000000E+00  0.00000000E+00  0.00000000E+00
  0.00000000E+00  0.00000000E+00  0.00000000E+00
  0.00000000E+00  0.00000000E+00  0.00000000E+00
  0.00000000E+00  0.00000000E+00  0.00000000E+00
  0.00000000E+00  0.00000000E+00  0.00000000E+00
  0.00000000E+00  0.00000000E+00  0.00000000E+00
  0.00000000E+00  0.00000000E+00  0.00000000E+00
  0.00000000E+00  0.00000000E+00  0.00000000E+00
  0.00000000E+00  0.00000000E+00  0.00000000E+00
  0.00000000E+00  0.00000000E+00  0.00000000E+00
  0.00000000E+00  0.00000000E+00  0.00000000E+00
  0.00000000E+00  0.00000000E+00  0.00000000E+00
  0.00000000E+00  0.00000000E+00  0.00000000E+00
  0.00000000E+00  0.00000000E+00  0.00000000E+00
  0.00000000E+00  0.00000000E+00  0.00000000E+00
  0.00000000E+00  0.00000000E+00  0.00000000E+00
  0.00000000E+00  0.00000000E+00  0.00000000E+00
  0.00000000E+00  0.00000000E+00  0.00000000E+00
  0.00000000E+00  0.00000000E+00  0.00000000E+00
  0.00000000E+00  0.00000000E+00  0.00000000E+00
  0.00000000E+00  0.00000000E+00  0.00000000E+00
  0.00000000E+00  0.00000000E+00  0.00000000E+00
  0.00000000E+00  0.00000000E+00  0.00000000E+00
  0.00000000E+00  0.00000000E+00  0.00000000E+00
  0.00000000E+00  0.00000000E+00  0.00000000E+00
  0.00000000E+00  0.00000000E+00  0.00000000E+00
  0.00000000E+00  0.00000000E+00  0.00000000E+00
  0.00000000E+00  0.00000000E+00  0.00000000E+00
  0.00000000E+00  0.00000000E+00  0.00000000E+00
  0.00000000E+00  0.00000000E+00  0.00000000E+00
  0.00000000E+00  0.00000000E+00  0.00000000E+00
  0.00000000E+00  0.00000000E+00  0.00000000E+00
  0.00000000E+00  0.00000000E+00  0.00000000E+00
  0.00000000E+00  0.00000000E+00  0.00000000E+00
  0.00000000E+00  0.00000000E+00  0.00000000E+00
  0.00000000E+00  0.00000000E+00  0.00000000E+00
  0.00000000E+00  0.00000000E+00  0.00000000E+00
  0.00000000E+00  0.00000000E+00  0.00000000E+00
  0.00000000E+00  0.00000000E+00  0.00000000E+00
  0.00000000E+00  0.00000000E+00  0.00000000E+00
  0.00000000E+00  0.00000000E+00  0.00000000E+00
  0.00000000E+00  0.00000000E+00  0.00000000E+00
  0.00000000E+00  0.00000000E+00  0.00000000E+00
  0.00000000E+00  0.00000000E+00  0.00000000E+00
  0.00000000E+00  0.00000000E+00  0.00000000E+00
  0.00000000E+00  0.00000000E+00  0.00000000E+00
  0.00000000E+00  0.00000000E+00  0.00000000E+00
  0.00000000E+00  0.00000000E+00  0.00000000E+00
  0.00000000E+00  0.00000000E+00  0.00000000E+00
  0.00000000E+00  0.00000000E+00  0.00000000E+00
  0.00000000E+00  0.00000000E+00  0.00000000E+00
  0.00000000E+00  0.00000000E+00  0.00000000E+00
  0.00000000E+00  0.00000000E+00  0.00000000E+00
  0.00000000E+00  0.00000000E+00  0.00000000E+00
  0.00000000E+00  0.00000000E+00  0.00000000E+00
  0.00000000E+00  0.00000000E+00  0.00000000E+00
  0.00000000E+00  0.00000000E+00  0.00000000E+00
  0.00000000E+00  0.00000000E+00  0.00000000E+00
  0.00000000E+00  0.00000000E+00  0.00000000E+00
  0.00000000E+00  0.00000000E+00  0.00000000E+00
  0.00000000E+00  0.00000000E+00  0.00000000E+00
  0.00000000E+00  0.00000000E+00  0.00000000E+00
  0.00000000E+00  0.00000000E+00  0.00000000E+00
  0.00000000E+00  0.00000000E+00  0.00000000E+00
  0.00000000E+00  0.00000000E+00  0.00000000E+00
  0.00000000E+00  0.00000000E+00  0.00000000E+00
  0.00000000E+00  0.00000000E+00  0.00000000E+00
  0.00000000E+00  0.00000000E+00  0.00000000E+00
  0.00000000E+00  0.00000000E+00  0.00000000E+00
  0.00000000E+00  0.00000000E+00  0.00000000E+00
  0.00000000E+00  0.00000000E+00  0.00000000E+00
  0.00000000E+00  0.00000000E+00  0.00000000E+00
  0.00000000E+00  0.00000000E+00  0.00000000E+00
  0.00000000E+00  0.00000000E+00  0.00000000E+00
  0.00000000E+00  0.00000000E+00  0.00000000E+00
  0.00000000E+00  0.00000000E+00  0.00000000E+00
  0.00000000E+00  0.00000000E+00  0.00000000E+00
  0.00000000E+00  0.00000000E+00  0.00000000E+00
  0.00000000E+00  0.00000000E+00  0.00000000E+00
  0.00000000E+00  0.00000000E+00  0.00000000E+00
  0.00000000E+00  0.00000000E+00  0.00000000E+00
  0.00000000E+00  0.00000000E+00  0.00000000E+00
  0.00000000E+00  0.00000000E+00  0.00000000E+00
  0.00000000E+00  0.00000000E+00  0.00000000E+00
  0.00000000E+00  0.00000000E+00  0.00000000E+00
  0.00000000E+00  0.00000000E+00  0.00000000E+00
  0.00000000E+00  0.00000000E+00  0.00000000E+00
  0.00000000E+00  0.00000000E+00  0.00000000E+00
  0.00000000E+00  0.00000000E+00  0.00000000E+00
  0.00000000E+00  0.00000000E+00  0.00000000E+00
  0.00000000E+00  0.00000000E+00  0.00000000E+00
  0.00000000E+00  0.00000000E+00  0.00000000E+00
  0.00000000E+00  0.00000000E+00  0.00000000E+00
  0.00000000E+00  0.00000000E+00  0.00000000E+00
  0.00000000E+00  0.00000000E+00  0.00000000E+00
  0.00000000E+00  0.00000000E+00  0.00000000E+00
  0.00000000E+00  0.00000000E+00  0.00000000E+00
  0.00000000E+00  0.00000000E+00  0.00000000E+00
  0.00000000E+00  0.00000000E+00  0.00000000E+00
  0.00000000E+00  0.00000000E+00  0.00000000E+00
  0.00000000E+00  0.00000000E+00  0.00000000E+00
  0.00000000E+00  0.00000000E+00  0.00000000E+00
  0.00000000E+00  0.00000000E+00  0.00000000E+00
  0.00000000E+00  0.00000000E+00  0.00000000E+00
  0.00000000E+00  0.00000000E+00  0.00000000E+00
  0.00000000E+00  0.00000000E+00  0.00000000E+00
  0.00000000E+00  0.00000000E+00  0.00000000E+00
  0.00000000E+00  0.00000000E+00  0.00000000E+00
  0.00000000E+00  0.00000000E+00  0.00000000E+00
  0.00000000E+00  0.00000000E+00  0.00000000E+00
  0.00000000E+00  0.00000000E+00  0.00000000E+00
  0.00000000E+00  0.00000000E+00  0.00000000E+00
  0.00000000E+00  0.00000000E+00  0.00000000E+00
  0.00000000E+00  0.00000000E+00  0.00000000E+00
  0.00000000E+00  0.00000000E+00  0.00000000E+00
  0.00000000E+00  0.00000000E+00  0.00000000E+00
