supercell generated structure. e_col = 0
   1.00000000000000     
    11.4574989423404912    0.0000000000000000    0.0000000000000000
    -5.7287494711702456    9.9224851478651708    0.0000000000000000
     0.0000000000000000    0.0000000000000000   22.4047041953603063
   Al   Ca   Mg   O    Ti
    64     8    16   152    16
Direct
  0.0000013908312110  0.9999986091687890  0.0003142544786900
  0.9999986091687890  0.0000013908312110  0.5003142544786972
  0.0000013937854346  0.4999986128618064  0.0003142597907004
  0.9999986022145652  0.5000013811382001  0.5003142597907004
  0.5000013841381968  0.9999986042145653  0.0003142597907004
  0.4999986158618031  0.0000013957854347  0.5003142597907004
  0.5000013852906474  0.4999986097093556  0.0003142635036343
  0.4999986107093521  0.5000013842906509  0.5003142635036415
  0.9999988141861330  0.0000011858138669  0.2387710138543088
  0.0000011858138669  0.9999988141861330  0.7387709918543071
  0.9999989131235246  0.5000013205404293  0.2387710030275560
  0.0000010828764750  0.4999986734595774  0.7387709810275542
  0.4999986764595741  0.0000010848764752  0.2387710030275560
  0.5000013235404260  0.9999989151235248  0.7387709810275542
  0.4999987434032158  0.5000012515967874  0.2387709954021677
  0.5000012525967840  0.4999987424032193  0.7387709734021659
  0.4167563828577447  0.0832435872294932  0.1051016043057527
  0.4167563808740066  0.3335086552754015  0.1051012522162299
  0.1664915456510420  0.0832437029468939  0.1051012387129194
  0.0832435942294902  0.4167564098577434  0.6051016263057474
  0.0832437029468939  0.1664915486510458  0.6051012607129141
  0.3335086662754060  0.4167564098740055  0.6051012742162246
  0.0818112549586999  0.4181887518296407  0.8949367618177949
  0.3363811519981011  0.4181883687948406  0.8949384355215280
  0.0818117339028853  0.1636190411974172  0.8949384489661476
  0.4181887248296420  0.0818112479587029  0.3949367178177915
  0.1636190381974134  0.0818117339028853  0.3949384049661510
  0.4181883397948418  0.3363811409980967  0.3949383915215314
  0.4167563374251662  0.5832436275748345  0.1051016435747355
  0.4167562666969442  0.8335083939072727  0.1051012815935766
  0.1664915850927221  0.5832437273030554  0.1051012815935766
  0.0832435936932933  0.9167563533067129  0.6051015954631336
  0.0832435754645421  0.6664913289237835  0.6051012460064701
  0.3335086750762167  0.9167563675354639  0.6051012460064701
  0.0818112541829435  0.9181886928170626  0.8949367887378646
  0.3363811551463455  0.9181883210449692  0.8949384606390218
  0.0818116219550369  0.6636188488536550  0.8949384606390218
  0.4181886854371954  0.5818112795628054  0.3949366841662957
  0.1636190697552098  0.5818117525844676  0.3949383666025205
  0.4181882414155317  0.8363809092447849  0.3949383666025205
  0.9167563793067079  0.0832435906932895  0.1051015734631389
  0.9167563915354587  0.3335086900762144  0.1051012240064753
  0.6664913189237827  0.0832435764645386  0.1051012240064753
  0.5832436595748300  0.4167563664251650  0.6051016655747301
  0.5832437303030521  0.1664916000927269  0.6051013035935714
  0.8335083689072742  0.4167562666969442  0.6051013035935714
  0.5818113115628010  0.4181887144371942  0.8949367281662920
  0.8363808842447935  0.4181882414155317  0.8949384106025171
  0.5818117555844643  0.1636190847552146  0.8949384106025171
  0.9181887188170577  0.0818112511829397  0.3949367447378684
  0.6636188388536470  0.0818116229550335  0.3949384166390252
  0.9181883450449640  0.3363811701463432  0.3949384166390252
  0.9167563807705041  0.5832435841422561  0.1051016043057527
  0.9167562940531023  0.8335084453489539  0.1051012387129194
  0.6664913517245954  0.5832435841259941  0.1051012522162299
  0.5832435901422566  0.9167563567705093  0.6051016263057474
  0.5832436071259924  0.6664913637245964  0.6051012742162246
  0.8335083943489603  0.9167562410531086  0.6051012607129141
  0.5818112481703595  0.9181886960412995  0.8949367618177949
  0.8363809018025887  0.9181882100971174  0.8949384489661476
  0.5818116482051571  0.6636188780018943  0.8949384355215280
  0.9181887200412944  0.5818112421703590  0.3949367178177915
  0.6636188660018933  0.5818116252051587  0.3949383915215314
  0.9181882630971111  0.8363809528025894  0.3949384049661510
  0.3333043894434854  0.1666956336370103  0.2595043410810470
  0.1666956396370037  0.3333044104434836  0.7595043850810436
  0.3333044094855157  0.6666955925144774  0.2595043382045284
  0.1666956782398029  0.8333043267601939  0.7595043888812535
  0.8333042487601946  0.1666956542398080  0.2595043448812569
  0.6666955995144744  0.3333044254855170  0.7595043822045250
  0.8333043163629926  0.6666956075565179  0.2595043410810470
  0.6666956435565209  0.8333043473629916  0.7595043850810436
  0.1666678604098972  0.3333322718917817  0.0259523502091551
  0.3333322508917835  0.1666678544099038  0.5259523502091551
  0.3333344529825491  0.1666656470784594  0.9740445992472457
  0.1666656530784527  0.3333344739825473  0.4740445992472459
  0.1666678294233061  0.8333321755766836  0.0259523663494105
  0.3333321981997817  0.6666678038002185  0.5259523257584274
  0.3333344028507464  0.6666655991492538  0.9740446316759117
  0.1666656240784468  0.8333343809215501  0.4740445777208634
  0.6666678108002155  0.3333322141997830  0.0259523257584275
  0.8333320975766842  0.1666678054233183  0.5259523663494104
  0.8333343029215508  0.1666656000784519  0.9740445777208633
  0.6666656061492509  0.3333344188507477  0.4740446316759119
  0.6666677821082228  0.8333321265900981  0.0259523502091551
  0.8333320955900991  0.6666677461082198  0.5259523502091551
  0.8333343029215436  0.6666655440174543  0.9740445992472457
  0.6666655800174572  0.8333343339215427  0.4740445992472459
  0.0000009083989887  0.9999990916010112  0.1532930916234726
  0.9999990916010112  0.0000009083989887  0.6532930696234778
  0.0000007073736051  0.9999992926263949  0.8503784685098357
  0.9999992926263949  0.0000007073736051  0.3503784025098444
  0.0000008713747384  0.4999990315615357  0.1532930695215363
  0.9999991246252612  0.5000009624384710  0.6532930475215415
  0.0000007450342886  0.4999993499765302  0.8503784896363886
  0.9999992509657111  0.5000006440234764  0.3503784236363902
  0.5000009654384677  0.9999991266252614  0.1532930695215363
  0.4999990345615324  0.0000008733747385  0.6532930475215415
  0.5000006470234731  0.9999992529657112  0.8503784896363886
  0.4999993529765269  0.0000007470342887  0.3503784236363902
  0.5000009416256511  0.4999990533743521  0.1532930545123584
  0.4999990543743487  0.5000009406256546  0.6532930325123636
  0.5000006709242976  0.4999993240757056  0.8503785040932972
  0.4999993250757022  0.5000006699243010  0.3503784380932988
  0.1666672670534075  0.3333326818572127  0.9375370126071954
  0.3333326608572145  0.1666672610534141  0.4375370126071954
  0.3333349677743804  0.1666649428026369  0.0619790976518453
  0.1666649488026302  0.3333349887743786  0.5619790816518440
  0.1666672873372141  0.8333327176627828  0.9375369797336586
  0.3333326827336814  0.6666673192663187  0.4375370631847500
  0.3333349936590331  0.6666650083409599  0.0619790332503976
  0.1666649712087499  0.8333350337912543  0.5619791238258309
  0.6666673262663158  0.3333326987336827  0.9375370631847499
  0.8333326396627835  0.1666672633372192  0.4375369797336586
  0.8333349557912549  0.1666649472087550  0.0619791398258323
  0.6666650153409569  0.3333350096590344  0.5619790172503962
  0.6666673721427917  0.8333327199465880  0.9375370126071954
  0.8333326889465890  0.6666673361427887  0.4375370126071954
  0.8333350071973734  0.6666650292256157  0.0619790976518453
  0.6666650652256186  0.8333350381973724  0.5619790816518440
  0.0893172146419395  0.4106827219825085  0.2494962679686850
  0.0893339342735610  0.1786326915182577  0.2494970013135676
  0.3213670686568286  0.4106659279705203  0.2494970103800006
  0.4106827139825079  0.0893172036419422  0.7494962019686866
  0.4106659149705228  0.3213670586568277  0.7494969443799951
  0.1786326795182567  0.0893339212735635  0.7494969353135622
  0.0893171302203676  0.9106828537796381  0.2494962614162091
  0.0893339361814819  0.6786327835808996  0.2494970053207160
  0.3213671854190942  0.9106660398185232  0.2494970053207160
  0.4106826710410211  0.5893172889589757  0.7494962075848590
  0.4106659360244512  0.8213671368888975  0.7494969428321417
  0.1786328811111040  0.5893340319755461  0.7494969428321417
  0.5893173139589742  0.4106826810410219  0.2494962735848574
  0.5893340369755501  0.1786328941111015  0.2494970088321472
  0.8213671468888983  0.4106659380244513  0.2494970088321472
  0.9106828667796356  0.0893171402203684  0.7494961954162107
  0.9106660488185204  0.3213671854190942  0.7494969393207106
  0.6786328115809019  0.0893339541814834  0.7494969393207106
  0.5893172410174921  0.9106827903580643  0.2494962679686850
  0.5893340270294795  0.6786329103431661  0.2494970103800006
  0.8213673174817395  0.9106660727264432  0.2494970013135676
  0.9106828023580582  0.5893172480174891  0.7494962019686866
  0.9106660917264412  0.8213673394817413  0.7494969353135622
  0.6786329373431719  0.5893340420294771  0.7494969443799951
  0.0738277263676464  0.4261721629082234  0.0556137239388550
  0.0738278861151933  0.1476515912936028  0.0556134424059808
  0.3523483152330295  0.4261720253538393  0.0556134146094709
  0.4261721489082222  0.0738277323676398  0.5556137129388433
  0.4261720263538429  0.3523483082330254  0.5556134036094664
  0.1476515972936033  0.0738278861151933  0.5556134314059764
  0.4257770930998774  0.0742228161518923  0.9460766931550790
  0.1484488100112801  0.0742222380306480  0.9460766735727959
  0.4257776848724952  0.3515510891463490  0.9460766963320482
  0.0742228101518989  0.4257771070998786  0.4460766931550790
  0.3515510961463531  0.4257776838724915  0.4460766963320481
  0.0742222380306480  0.1484488040112867  0.4460766735727958
  0.0738277557348182  0.9261722092651825  0.0556137320942727
  0.0738278823802680  0.6476516115359777  0.0556134173868900
  0.3523483164640164  0.9261720856197364  0.0556134173868900
  0.4261722099400986  0.5738277900599014  0.5556137145243910
  0.4261720638506042  0.8523483635775898  0.5556134263481840
  0.1476516344224100  0.5738279301493954  0.5556134263481840
  0.4257771413227147  0.5742228586772853  0.9460766894155210
  0.1484488452729155  0.5742222696119208  0.9460766752566969
  0.4257777243880789  0.8515511527270844  0.9460766752566969
  0.0742228255468234  0.9257771394531773  0.4460766889657262
  0.3515510960634186  0.9257777266107559  0.4460766947997485
  0.0742222413892485  0.6484488319365754  0.4460766947997485
  0.5738277660598994  0.4261722039400981  0.0556137255243956
  0.5738279331493921  0.1476516304224096  0.0556134373481884
  0.8523483945775888  0.4261720638506042  0.0556134373481884
  0.9261722842651781  0.0738277847348170  0.5556137210942681
  0.9261721326197367  0.3523483324640177  0.5556134063868856
  0.6476516375359799  0.0738279083802631  0.5556134063868856
  0.9257772144531728  0.0742228545468222  0.9460766889657262
  0.6484488579365847  0.0742222673892435  0.9460766947997485
  0.9257777736107562  0.3515511120634199  0.9460766947997485
  0.5742228346772833  0.4257771353227142  0.4460766894155210
  0.8515511837270834  0.4257777243880789  0.4460766752566969
  0.5742222726119175  0.1484488412729152  0.4460766752566969
  0.5738278050917740  0.9261722616323598  0.0556137239388550
  0.5738279456461619  0.6476516357669700  0.0556134146094709
  0.8523483897063920  0.9261721078848062  0.0556134424059808
  0.9261722916323551  0.5738278310917762  0.5556137129388433
  0.9261721538848029  0.8523484027063967  0.5556134314059764
  0.6476516607669757  0.5738279686461603  0.5556134036094664
  0.9257772078481026  0.5742228869001209  0.9460766931550790
  0.6484488798536520  0.5742223101275081  0.9460766963320482
  0.9257778019693481  0.8515511899887199  0.9460766735727959
  0.5742228609001188  0.9257771778481072  0.4460766931550790
  0.8515511769887153  0.9257777559693514  0.4460766735727958
  0.5742222871275098  0.6484488548536463  0.4460766963320481
  0.2529195238702838  0.2470803652229835  0.1500776677892801
  0.2529189979622899  0.0058330185846219  0.1500783729930343
  0.4941671064974951  0.2470809948072699  0.1500784016299173
  0.2470803682229802  0.2529195248702874  0.6500776347892809
  0.2470809948072699  0.4941670804975001  0.6500783686299183
  0.0058330205846221  0.2529189989622936  0.6500783399930352
  0.2468250826227388  0.2531748271927117  0.8489720196899996
  0.0063570422813564  0.2531764432073633  0.8489689120343373
  0.2468235476939239  0.4936430326816768  0.8489688855651638
  0.2531748261927080  0.2468250796227421  0.3489719756900031
  0.4936430586816718  0.2468235476939239  0.3489688415651672
  0.2531764422073596  0.0063570402813562  0.3489688680343407
  0.2529194245399194  0.7470805454600781  0.1500777194315546
  0.2529188358078330  0.5058326597242599  0.1500784469789006
  0.4941673152757414  0.7470811581921666  0.1500784469789006
  0.2470803800172151  0.7529196369827827  0.6500776092161373
  0.2470808250822429  0.9941667577149458  0.6500783097568839
  0.0058332032850547  0.7529191429177544  0.6500783097568839
  0.2468251057530862  0.7531749112469117  0.8489720378074112
  0.0063571927633512  0.7531765583622534  0.8489689314565683
  0.2468234096377441  0.9936427682366491  0.8489689314565683
  0.2531747518172369  0.7468252181827606  0.3489719365165813
  0.4936432149462695  0.7468236757075484  0.3489688119121085
  0.2531763182924511  0.5063567600537320  0.3489688119121085
  0.7529196169827882  0.2470803570172168  0.1500776422161365
  0.7529191019177546  0.0058331812850600  0.1500783427568829
  0.9941668367149417  0.2470808510822451  0.1500783427568829
  0.7470806154600839  0.2529194485399214  0.6500776864315554
  0.7470812041921704  0.4941673342757465  0.6500784139789015
  0.5058326817242547  0.2529188358078330  0.6500784139789015
  0.7468252881827664  0.2531747758172389  0.8489719805165777
  0.5063567820537267  0.2531763182924511  0.8489688559121051
  0.7468237217075522  0.4936432339462746  0.8489688559121051
  0.7531748912469172  0.2468250827530878  0.3489719938074147
  0.9936428472366450  0.2468234356377462  0.3489688874565717
  0.7531765173622536  0.0063571707633565  0.3489688874565717
  0.7529195647770178  0.7470804691297120  0.1500776677892801
  0.7529189591927334  0.5058329135025064  0.1500784016299173
  0.9941669544153795  0.7470809950377060  0.1500783729930343
  0.7470805381297142  0.7529196287770160  0.6500776347892809
  0.7470810140377111  0.9941669204153838  0.6500783399930352
  0.5058329335025009  0.7529189991927296  0.6500783686299183
  0.7468252358072900  0.7531749143772575  0.8489720196899996
  0.5063569813183244  0.7531764463060757  0.8489688855651638
  0.7468235697926413  0.9936428987186494  0.8489689120343373
  0.7531748503772593  0.7468251668072878  0.3489719756900031
  0.9936429327186451  0.7468235507926362  0.3489688680343407
  0.7531764063060795  0.5063569613183299  0.3489688415651672
  0.3333370174828292  0.1666637250435383  0.8122523144766542
  0.1666637310435317  0.3333370384828274  0.3122523144766541
  0.1666683994571372  0.3333325129119658  0.1863107750991175
  0.3333324919119676  0.1666683934571438  0.6863107530991157
  0.3333367126846941  0.6666632893153062  0.8122522917593666
  0.1666635372552929  0.8333364677447039  0.3122523294384246
  0.1666681633798675  0.8333318416201294  0.1863107575207592
  0.3333321255025652  0.6666678764974350  0.6863107794890424
  0.8333363897447046  0.1666635132552980  0.8122523294384176
  0.6666632963153032  0.3333367286846954  0.3122522917593665
  0.6666678834974320  0.3333321415025665  0.1863108014890442
  0.8333317636201301  0.1666681393798726  0.6863107355207574
  0.8333362249564646  0.6666629795171741  0.8122523144766542
  0.6666630155171771  0.8333362559564637  0.3122523144766541
  0.6666675410880387  0.8333315875428582  0.1863107750991175
  0.8333315565428592  0.6666675050880357  0.6863107530991157
 
  0.00000000E+00  0.00000000E+00  0.00000000E+00
  0.00000000E+00  0.00000000E+00  0.00000000E+00
  0.00000000E+00  0.00000000E+00  0.00000000E+00
  0.00000000E+00  0.00000000E+00  0.00000000E+00
  0.00000000E+00  0.00000000E+00  0.00000000E+00
  0.00000000E+00  0.00000000E+00  0.00000000E+00
  0.00000000E+00  0.00000000E+00  0.00000000E+00
  0.00000000E+00  0.00000000E+00  0.00000000E+00
  0.00000000E+00  0.00000000E+00  0.00000000E+00
  0.00000000E+00  0.00000000E+00  0.00000000E+00
  0.00000000E+00  0.00000000E+00  0.00000000E+00
  0.00000000E+00  0.00000000E+00  0.00000000E+00
  0.00000000E+00  0.00000000E+00  0.00000000E+00
  0.00000000E+00  0.00000000E+00  0.00000000E+00
  0.00000000E+00  0.00000000E+00  0.00000000E+00
  0.00000000E+00  0.00000000E+00  0.00000000E+00
  0.00000000E+00  0.00000000E+00  0.00000000E+00
  0.00000000E+00  0.00000000E+00  0.00000000E+00
  0.00000000E+00  0.00000000E+00  0.00000000E+00
  0.00000000E+00  0.00000000E+00  0.00000000E+00
  0.00000000E+00  0.00000000E+00  0.00000000E+00
  0.00000000E+00  0.00000000E+00  0.00000000E+00
  0.00000000E+00  0.00000000E+00  0.00000000E+00
  0.00000000E+00  0.00000000E+00  0.00000000E+00
  0.00000000E+00  0.00000000E+00  0.00000000E+00
  0.00000000E+00  0.00000000E+00  0.00000000E+00
  0.00000000E+00  0.00000000E+00  0.00000000E+00
  0.00000000E+00  0.00000000E+00  0.00000000E+00
  0.00000000E+00  0.00000000E+00  0.00000000E+00
  0.00000000E+00  0.00000000E+00  0.00000000E+00
  0.00000000E+00  0.00000000E+00  0.00000000E+00
  0.00000000E+00  0.00000000E+00  0.00000000E+00
  0.00000000E+00  0.00000000E+00  0.00000000E+00
  0.00000000E+00  0.00000000E+00  0.00000000E+00
  0.00000000E+00  0.00000000E+00  0.00000000E+00
  0.00000000E+00  0.00000000E+00  0.00000000E+00
  0.00000000E+00  0.00000000E+00  0.00000000E+00
  0.00000000E+00  0.00000000E+00  0.00000000E+00
  0.00000000E+00  0.00000000E+00  0.00000000E+00
  0.00000000E+00  0.00000000E+00  0.00000000E+00
  0.00000000E+00  0.00000000E+00  0.00000000E+00
  0.00000000E+00  0.00000000E+00  0.00000000E+00
  0.00000000E+00  0.00000000E+00  0.00000000E+00
  0.00000000E+00  0.00000000E+00  0.00000000E+00
  0.00000000E+00  0.00000000E+00  0.00000000E+00
  0.00000000E+00  0.00000000E+00  0.00000000E+00
  0.00000000E+00  0.00000000E+00  0.00000000E+00
  0.00000000E+00  0.00000000E+00  0.00000000E+00
  0.00000000E+00  0.00000000E+00  0.00000000E+00
  0.00000000E+00  0.00000000E+00  0.00000000E+00
  0.00000000E+00  0.00000000E+00  0.00000000E+00
  0.00000000E+00  0.00000000E+00  0.00000000E+00
  0.00000000E+00  0.00000000E+00  0.00000000E+00
  0.00000000E+00  0.00000000E+00  0.00000000E+00
  0.00000000E+00  0.00000000E+00  0.00000000E+00
  0.00000000E+00  0.00000000E+00  0.00000000E+00
  0.00000000E+00  0.00000000E+00  0.00000000E+00
  0.00000000E+00  0.00000000E+00  0.00000000E+00
  0.00000000E+00  0.00000000E+00  0.00000000E+00
  0.00000000E+00  0.00000000E+00  0.00000000E+00
  0.00000000E+00  0.00000000E+00  0.00000000E+00
  0.00000000E+00  0.00000000E+00  0.00000000E+00
  0.00000000E+00  0.00000000E+00  0.00000000E+00
  0.00000000E+00  0.00000000E+00  0.00000000E+00
  0.00000000E+00  0.00000000E+00  0.00000000E+00
  0.00000000E+00  0.00000000E+00  0.00000000E+00
  0.00000000E+00  0.00000000E+00  0.00000000E+00
  0.00000000E+00  0.00000000E+00  0.00000000E+00
  0.00000000E+00  0.00000000E+00  0.00000000E+00
  0.00000000E+00  0.00000000E+00  0.00000000E+00
  0.00000000E+00  0.00000000E+00  0.00000000E+00
  0.00000000E+00  0.00000000E+00  0.00000000E+00
  0.00000000E+00  0.00000000E+00  0.00000000E+00
  0.00000000E+00  0.00000000E+00  0.00000000E+00
  0.00000000E+00  0.00000000E+00  0.00000000E+00
  0.00000000E+00  0.00000000E+00  0.00000000E+00
  0.00000000E+00  0.00000000E+00  0.00000000E+00
  0.00000000E+00  0.00000000E+00  0.00000000E+00
  0.00000000E+00  0.00000000E+00  0.00000000E+00
  0.00000000E+00  0.00000000E+00  0.00000000E+00
  0.00000000E+00  0.00000000E+00  0.00000000E+00
  0.00000000E+00  0.00000000E+00  0.00000000E+00
  0.00000000E+00  0.00000000E+00  0.00000000E+00
  0.00000000E+00  0.00000000E+00  0.00000000E+00
  0.00000000E+00  0.00000000E+00  0.00000000E+00
  0.00000000E+00  0.00000000E+00  0.00000000E+00
  0.00000000E+00  0.00000000E+00  0.00000000E+00
  0.00000000E+00  0.00000000E+00  0.00000000E+00
  0.00000000E+00  0.00000000E+00  0.00000000E+00
  0.00000000E+00  0.00000000E+00  0.00000000E+00
  0.00000000E+00  0.00000000E+00  0.00000000E+00
  0.00000000E+00  0.00000000E+00  0.00000000E+00
  0.00000000E+00  0.00000000E+00  0.00000000E+00
  0.00000000E+00  0.00000000E+00  0.00000000E+00
  0.00000000E+00  0.00000000E+00  0.00000000E+00
  0.00000000E+00  0.00000000E+00  0.00000000E+00
  0.00000000E+00  0.00000000E+00  0.00000000E+00
  0.00000000E+00  0.00000000E+00  0.00000000E+00
  0.00000000E+00  0.00000000E+00  0.00000000E+00
  0.00000000E+00  0.00000000E+00  0.00000000E+00
  0.00000000E+00  0.00000000E+00  0.00000000E+00
  0.00000000E+00  0.00000000E+00  0.00000000E+00
  0.00000000E+00  0.00000000E+00  0.00000000E+00
  0.00000000E+00  0.00000000E+00  0.00000000E+00
  0.00000000E+00  0.00000000E+00  0.00000000E+00
  0.00000000E+00  0.00000000E+00  0.00000000E+00
  0.00000000E+00  0.00000000E+00  0.00000000E+00
  0.00000000E+00  0.00000000E+00  0.00000000E+00
  0.00000000E+00  0.00000000E+00  0.00000000E+00
  0.00000000E+00  0.00000000E+00  0.00000000E+00
  0.00000000E+00  0.00000000E+00  0.00000000E+00
  0.00000000E+00  0.00000000E+00  0.00000000E+00
  0.00000000E+00  0.00000000E+00  0.00000000E+00
  0.00000000E+00  0.00000000E+00  0.00000000E+00
  0.00000000E+00  0.00000000E+00  0.00000000E+00
  0.00000000E+00  0.00000000E+00  0.00000000E+00
  0.00000000E+00  0.00000000E+00  0.00000000E+00
  0.00000000E+00  0.00000000E+00  0.00000000E+00
  0.00000000E+00  0.00000000E+00  0.00000000E+00
  0.00000000E+00  0.00000000E+00  0.00000000E+00
  0.00000000E+00  0.00000000E+00  0.00000000E+00
  0.00000000E+00  0.00000000E+00  0.00000000E+00
  0.00000000E+00  0.00000000E+00  0.00000000E+00
  0.00000000E+00  0.00000000E+00  0.00000000E+00
  0.00000000E+00  0.00000000E+00  0.00000000E+00
  0.00000000E+00  0.00000000E+00  0.00000000E+00
  0.00000000E+00  0.00000000E+00  0.00000000E+00
  0.00000000E+00  0.00000000E+00  0.00000000E+00
  0.00000000E+00  0.00000000E+00  0.00000000E+00
  0.00000000E+00  0.00000000E+00  0.00000000E+00
  0.00000000E+00  0.00000000E+00  0.00000000E+00
  0.00000000E+00  0.00000000E+00  0.00000000E+00
  0.00000000E+00  0.00000000E+00  0.00000000E+00
  0.00000000E+00  0.00000000E+00  0.00000000E+00
  0.00000000E+00  0.00000000E+00  0.00000000E+00
  0.00000000E+00  0.00000000E+00  0.00000000E+00
  0.00000000E+00  0.00000000E+00  0.00000000E+00
  0.00000000E+00  0.00000000E+00  0.00000000E+00
  0.00000000E+00  0.00000000E+00  0.00000000E+00
  0.00000000E+00  0.00000000E+00  0.00000000E+00
  0.00000000E+00  0.00000000E+00  0.00000000E+00
  0.00000000E+00  0.00000000E+00  0.00000000E+00
  0.00000000E+00  0.00000000E+00  0.00000000E+00
  0.00000000E+00  0.00000000E+00  0.00000000E+00
  0.00000000E+00  0.00000000E+00  0.00000000E+00
  0.00000000E+00  0.00000000E+00  0.00000000E+00
  0.00000000E+00  0.00000000E+00  0.00000000E+00
  0.00000000E+00  0.00000000E+00  0.00000000E+00
  0.00000000E+00  0.00000000E+00  0.00000000E+00
  0.00000000E+00  0.00000000E+00  0.00000000E+00
  0.00000000E+00  0.00000000E+00  0.00000000E+00
  0.00000000E+00  0.00000000E+00  0.00000000E+00
  0.00000000E+00  0.00000000E+00  0.00000000E+00
  0.00000000E+00  0.00000000E+00  0.00000000E+00
  0.00000000E+00  0.00000000E+00  0.00000000E+00
  0.00000000E+00  0.00000000E+00  0.00000000E+00
  0.00000000E+00  0.00000000E+00  0.00000000E+00
  0.00000000E+00  0.00000000E+00  0.00000000E+00
  0.00000000E+00  0.00000000E+00  0.00000000E+00
  0.00000000E+00  0.00000000E+00  0.00000000E+00
  0.00000000E+00  0.00000000E+00  0.00000000E+00
  0.00000000E+00  0.00000000E+00  0.00000000E+00
  0.00000000E+00  0.00000000E+00  0.00000000E+00
  0.00000000E+00  0.00000000E+00  0.00000000E+00
  0.00000000E+00  0.00000000E+00  0.00000000E+00
  0.00000000E+00  0.00000000E+00  0.00000000E+00
  0.00000000E+00  0.00000000E+00  0.00000000E+00
  0.00000000E+00  0.00000000E+00  0.00000000E+00
  0.00000000E+00  0.00000000E+00  0.00000000E+00
  0.00000000E+00  0.00000000E+00  0.00000000E+00
  0.00000000E+00  0.00000000E+00  0.00000000E+00
  0.00000000E+00  0.00000000E+00  0.00000000E+00
  0.00000000E+00  0.00000000E+00  0.00000000E+00
  0.00000000E+00  0.00000000E+00  0.00000000E+00
  0.00000000E+00  0.00000000E+00  0.00000000E+00
  0.00000000E+00  0.00000000E+00  0.00000000E+00
  0.00000000E+00  0.00000000E+00  0.00000000E+00
  0.00000000E+00  0.00000000E+00  0.00000000E+00
  0.00000000E+00  0.00000000E+00  0.00000000E+00
  0.00000000E+00  0.00000000E+00  0.00000000E+00
  0.00000000E+00  0.00000000E+00  0.00000000E+00
  0.00000000E+00  0.00000000E+00  0.00000000E+00
  0.00000000E+00  0.00000000E+00  0.00000000E+00
  0.00000000E+00  0.00000000E+00  0.00000000E+00
  0.00000000E+00  0.00000000E+00  0.00000000E+00
  0.00000000E+00  0.00000000E+00  0.00000000E+00
  0.00000000E+00  0.00000000E+00  0.00000000E+00
  0.00000000E+00  0.00000000E+00  0.00000000E+00
  0.00000000E+00  0.00000000E+00  0.00000000E+00
  0.00000000E+00  0.00000000E+00  0.00000000E+00
  0.00000000E+00  0.00000000E+00  0.00000000E+00
  0.00000000E+00  0.00000000E+00  0.00000000E+00
  0.00000000E+00  0.00000000E+00  0.00000000E+00
  0.00000000E+00  0.00000000E+00  0.00000000E+00
  0.00000000E+00  0.00000000E+00  0.00000000E+00
  0.00000000E+00  0.00000000E+00  0.00000000E+00
  0.00000000E+00  0.00000000E+00  0.00000000E+00
  0.00000000E+00  0.00000000E+00  0.00000000E+00
  0.00000000E+00  0.00000000E+00  0.00000000E+00
  0.00000000E+00  0.00000000E+00  0.00000000E+00
  0.00000000E+00  0.00000000E+00  0.00000000E+00
  0.00000000E+00  0.00000000E+00  0.00000000E+00
  0.00000000E+00  0.00000000E+00  0.00000000E+00
  0.00000000E+00  0.00000000E+00  0.00000000E+00
  0.00000000E+00  0.00000000E+00  0.00000000E+00
  0.00000000E+00  0.00000000E+00  0.00000000E+00
  0.00000000E+00  0.00000000E+00  0.00000000E+00
  0.00000000E+00  0.00000000E+00  0.00000000E+00
  0.00000000E+00  0.00000000E+00  0.00000000E+00
  0.00000000E+00  0.00000000E+00  0.00000000E+00
  0.00000000E+00  0.00000000E+00  0.00000000E+00
  0.00000000E+00  0.00000000E+00  0.00000000E+00
  0.00000000E+00  0.00000000E+00  0.00000000E+00
  0.00000000E+00  0.00000000E+00  0.00000000E+00
  0.00000000E+00  0.00000000E+00  0.00000000E+00
  0.00000000E+00  0.00000000E+00  0.00000000E+00
  0.00000000E+00  0.00000000E+00  0.00000000E+00
  0.00000000E+00  0.00000000E+00  0.00000000E+00
  0.00000000E+00  0.00000000E+00  0.00000000E+00
  0.00000000E+00  0.00000000E+00  0.00000000E+00
  0.00000000E+00  0.00000000E+00  0.00000000E+00
  0.00000000E+00  0.00000000E+00  0.00000000E+00
  0.00000000E+00  0.00000000E+00  0.00000000E+00
  0.00000000E+00  0.00000000E+00  0.00000000E+00
  0.00000000E+00  0.00000000E+00  0.00000000E+00
  0.00000000E+00  0.00000000E+00  0.00000000E+00
  0.00000000E+00  0.00000000E+00  0.00000000E+00
  0.00000000E+00  0.00000000E+00  0.00000000E+00
  0.00000000E+00  0.00000000E+00  0.00000000E+00
  0.00000000E+00  0.00000000E+00  0.00000000E+00
  0.00000000E+00  0.00000000E+00  0.00000000E+00
  0.00000000E+00  0.00000000E+00  0.00000000E+00
  0.00000000E+00  0.00000000E+00  0.00000000E+00
  0.00000000E+00  0.00000000E+00  0.00000000E+00
  0.00000000E+00  0.00000000E+00  0.00000000E+00
  0.00000000E+00  0.00000000E+00  0.00000000E+00
  0.00000000E+00  0.00000000E+00  0.00000000E+00
  0.00000000E+00  0.00000000E+00  0.00000000E+00
  0.00000000E+00  0.00000000E+00  0.00000000E+00
  0.00000000E+00  0.00000000E+00  0.00000000E+00
  0.00000000E+00  0.00000000E+00  0.00000000E+00
  0.00000000E+00  0.00000000E+00  0.00000000E+00
  0.00000000E+00  0.00000000E+00  0.00000000E+00
  0.00000000E+00  0.00000000E+00  0.00000000E+00
  0.00000000E+00  0.00000000E+00  0.00000000E+00
  0.00000000E+00  0.00000000E+00  0.00000000E+00
  0.00000000E+00  0.00000000E+00  0.00000000E+00
  0.00000000E+00  0.00000000E+00  0.00000000E+00
  0.00000000E+00  0.00000000E+00  0.00000000E+00
  0.00000000E+00  0.00000000E+00  0.00000000E+00
  0.00000000E+00  0.00000000E+00  0.00000000E+00
  0.00000000E+00  0.00000000E+00  0.00000000E+00
  0.00000000E+00  0.00000000E+00  0.00000000E+00
  0.00000000E+00  0.00000000E+00  0.00000000E+00
  0.00000000E+00  0.00000000E+00  0.00000000E+00
  0.00000000E+00  0.00000000E+00  0.00000000E+00
