supercell generated structure. e_col = 0
   1.00000000000000     
    11.4653102303067840    0.0000000000000000    0.0000000000000000
    -5.7326551151533920    9.9292499216802330    0.0000000000000000
     0.0000000000000000    0.0000000000000000   22.4199788724211828
   Al   Ca   Mg   O    Ti
    64     8    16   152    16
Direct
  0.0000000000000000  0.0000000000000000  0.0000000000000000
  0.0000000000000000  0.0000000000000000  0.5000000000000000
  0.9999999979999998  0.4999999970000033  0.0000000000000000
  0.9999999979999998  0.4999999970000033  0.5000000000000000
  0.5000000000000000  0.0000000000000000  0.0000000000000000
  0.5000000000000000  0.0000000000000000  0.5000000000000000
  0.4999999979999998  0.4999999970000033  0.0000000000000000
  0.4999999979999998  0.4999999970000033  0.5000000000000000
  0.0000000000000000  0.0000000000000000  0.2500000000000000
  0.0000000000000000  0.0000000000000000  0.7499999779999982
  0.9999999979999998  0.4999999970000033  0.2500000000000000
  0.9999999979999998  0.4999999970000033  0.7499999779999982
  0.5000000000000000  0.0000000000000000  0.2500000000000000
  0.5000000000000000  0.0000000000000000  0.7499999779999982
  0.4999999979999998  0.4999999970000033  0.2500000000000000
  0.4999999979999998  0.4999999970000033  0.7499999779999982
  0.4158999679999980  0.0841000019999996  0.1100799980000033
  0.4158999659999978  0.3318000169999991  0.1100799980000033
  0.1682000019999990  0.0841000019999996  0.1100799980000033
  0.0841000089999966  0.4158999949999966  0.6100800199999981
  0.0841000019999996  0.1682000050000028  0.6100800199999981
  0.3318000280000035  0.4158999949999966  0.6100800199999981
  0.0841000089999966  0.4158999949999966  0.8899200239999985
  0.3318000280000035  0.4158999949999966  0.8899200239999985
  0.0841000019999996  0.1682000050000028  0.8899200239999985
  0.4158999679999980  0.0841000019999996  0.3899199800000019
  0.1682000019999990  0.0841000019999996  0.3899199800000019
  0.4158999659999978  0.3318000169999991  0.3899199800000019
  0.4158999659999978  0.5840999990000029  0.1100799980000033
  0.4158999949999966  0.8317999889999967  0.1100799980000033
  0.1681999899999980  0.5840999990000029  0.1100799980000033
  0.0841000050000034  0.9158999420000029  0.6100800199999981
  0.0841000010000030  0.6682000019999990  0.6100800199999981
  0.3318000020000014  0.9158999420000029  0.6100800199999981
  0.0841000050000034  0.9158999420000029  0.8899200239999985
  0.3318000020000014  0.9158999420000029  0.8899200239999985
  0.0841000010000030  0.6682000019999990  0.8899200239999985
  0.4158999659999978  0.5840999990000029  0.3899199800000019
  0.1681999899999980  0.5840999990000029  0.3899199800000019
  0.4158999949999966  0.8317999889999967  0.3899199800000019
  0.9158999679999980  0.0841000019999996  0.1100799980000033
  0.9158999659999978  0.3318000169999991  0.1100799980000033
  0.6681999919999981  0.0841000019999996  0.1100799980000033
  0.5841000309999984  0.4158999949999966  0.6100800199999981
  0.5841000019999996  0.1682000050000028  0.6100800199999981
  0.8317999639999982  0.4158999949999966  0.6100800199999981
  0.5841000309999984  0.4158999949999966  0.8899200239999985
  0.8317999639999982  0.4158999949999966  0.8899200239999985
  0.5841000019999996  0.1682000050000028  0.8899200239999985
  0.9158999679999980  0.0841000019999996  0.3899199800000019
  0.6681999919999981  0.0841000019999996  0.3899199800000019
  0.9158999659999978  0.3318000169999991  0.3899199800000019
  0.9158999659999978  0.5840999990000029  0.1100799980000033
  0.9158999949999966  0.8317999889999967  0.1100799980000033
  0.6681999899999980  0.5840999990000029  0.1100799980000033
  0.5841000050000034  0.9158999420000029  0.6100800199999981
  0.5841000220000012  0.6682000019999990  0.6100800199999981
  0.8317999380000032  0.9158999420000029  0.6100800199999981
  0.5841000050000034  0.9158999420000029  0.8899200239999985
  0.8317999380000032  0.9158999420000029  0.8899200239999985
  0.5841000220000012  0.6682000019999990  0.8899200239999985
  0.9158999659999978  0.5840999990000029  0.3899199800000019
  0.6681999899999980  0.5840999990000029  0.3899199800000019
  0.9158999949999966  0.8317999889999967  0.3899199800000019
  0.3333299900000029  0.1666699980000033  0.2501699900000034
  0.1666700039999967  0.3333300110000010  0.7501700339999999
  0.3333299949999997  0.6666700070000005  0.2501699900000034
  0.1666700219999981  0.8333299829999987  0.7501700339999999
  0.8333299049999994  0.1666699980000033  0.2501699900000034
  0.6666700139999975  0.3333300110000010  0.7501700339999999
  0.8333299519999997  0.6666700070000005  0.2501699900000034
  0.6666700430000034  0.8333299829999987  0.7501700339999999
  0.1666700039999967  0.3333300110000010  0.0288699979999976
  0.3333299900000029  0.1666699980000033  0.5288699979999976
  0.3333299900000029  0.1666699980000033  0.9711300020000024
  0.1666700039999967  0.3333300110000010  0.4711300020000024
  0.1666700219999981  0.8333299829999987  0.0288699979999976
  0.3333299949999997  0.6666700070000005  0.5288699979999976
  0.3333299949999997  0.6666700070000005  0.9711300020000024
  0.1666700219999981  0.8333299829999987  0.4711300020000024
  0.6666700139999975  0.3333300110000010  0.0288699979999976
  0.8333299049999994  0.1666699980000033  0.5288699979999976
  0.8333299049999994  0.1666699980000033  0.9711300020000024
  0.6666700139999975  0.3333300110000010  0.4711300020000024
  0.6666700430000034  0.8333299829999987  0.0288699979999976
  0.8333299519999997  0.6666700070000005  0.5288699979999976
  0.8333299519999997  0.6666700070000005  0.9711300020000024
  0.6666700430000034  0.8333299829999987  0.4711300020000024
  0.0000000000000000  0.0000000000000000  0.1513599999999968
  0.0000000000000000  0.0000000000000000  0.6513599780000021
  0.0000000000000000  0.0000000000000000  0.8486400660000015
  0.0000000000000000  0.0000000000000000  0.3486400000000032
  0.9999999979999998  0.4999999970000033  0.1513599999999968
  0.9999999979999998  0.4999999970000033  0.6513599780000021
  0.9999999979999998  0.4999999970000033  0.8486400660000015
  0.9999999979999998  0.4999999970000033  0.3486400000000032
  0.5000000000000000  0.0000000000000000  0.1513599999999968
  0.5000000000000000  0.0000000000000000  0.6513599780000021
  0.5000000000000000  0.0000000000000000  0.8486400660000015
  0.5000000000000000  0.0000000000000000  0.3486400000000032
  0.4999999979999998  0.4999999970000033  0.1513599999999968
  0.4999999979999998  0.4999999970000033  0.6513599780000021
  0.4999999979999998  0.4999999970000033  0.8486400660000015
  0.4999999979999998  0.4999999970000033  0.3486400000000032
  0.1666700039999967  0.3333300110000010  0.9458400199999986
  0.3333299900000029  0.1666699980000033  0.4458400199999986
  0.3333299900000029  0.1666699980000033  0.0541599960000028
  0.1666700039999967  0.3333300110000010  0.5541599800000014
  0.1666700219999981  0.8333299829999987  0.9458400199999986
  0.3333299949999997  0.6666700070000005  0.4458400199999986
  0.3333299949999997  0.6666700070000005  0.0541599960000028
  0.1666700219999981  0.8333299829999987  0.5541599800000014
  0.6666700139999975  0.3333300110000010  0.9458400199999986
  0.8333299049999994  0.1666699980000033  0.4458400199999986
  0.8333299049999994  0.1666699980000033  0.0541599960000028
  0.6666700139999975  0.3333300110000010  0.5541599800000014
  0.6666700430000034  0.8333299829999987  0.9458400199999986
  0.8333299519999997  0.6666700070000005  0.4458400199999986
  0.8333299519999997  0.6666700070000005  0.0541599960000028
  0.6666700430000034  0.8333299829999987  0.5541599800000014
  0.0908400060000005  0.4091599779999981  0.2503299979999980
  0.0908400080000007  0.1816900110000006  0.2503299979999980
  0.3183100079999974  0.4091599779999981  0.2503299979999980
  0.4091599699999975  0.0908399950000032  0.7503299319999996
  0.4091599650000006  0.3183099979999966  0.7503299319999996
  0.1816899989999996  0.0908399950000032  0.7503299319999996
  0.0908399850000023  0.9091599990000034  0.2503299979999980
  0.0908399770000017  0.6816899709999973  0.2503299979999980
  0.3183099979999966  0.9091599990000034  0.2503299979999980
  0.4091599679999973  0.5908399919999994  0.7503299319999996
  0.4091599759999980  0.8183100199999984  0.7503299319999996
  0.1816899980000031  0.5908399919999994  0.7503299319999996
  0.5908400169999979  0.4091599779999981  0.2503299979999980
  0.5908399970000033  0.1816900110000006  0.2503299979999980
  0.8183100299999992  0.4091599779999981  0.2503299979999980
  0.9091600120000010  0.0908399950000032  0.7503299319999996
  0.9091600080000006  0.3183099979999966  0.7503299319999996
  0.6816899989999996  0.0908399950000032  0.7503299319999996
  0.5908399850000023  0.9091599990000034  0.2503299979999980
  0.5908399770000017  0.6816899709999973  0.2503299979999980
  0.8183099979999966  0.9091599990000034  0.2503299979999980
  0.9091600109999973  0.5908399919999994  0.7503299319999996
  0.9091600180000015  0.8183100199999984  0.7503299319999996
  0.6816899980000031  0.5908399919999994  0.7503299319999996
  0.0774999930000035  0.4224999979999993  0.0528400000000033
  0.0774999989999969  0.1549999989999975  0.0528400000000033
  0.3450000050000028  0.4224999979999993  0.0528400000000033
  0.4224999839999981  0.0774999989999969  0.5528399889999989
  0.4224999990000029  0.3449999979999987  0.5528399889999989
  0.1550000049999980  0.0774999989999969  0.5528399889999989
  0.4224999839999981  0.0774999989999969  0.9471600110000011
  0.1550000049999980  0.0774999989999969  0.9471600110000011
  0.4224999990000029  0.3449999979999987  0.9471600110000011
  0.0774999930000035  0.4224999979999993  0.4471600110000011
  0.3450000050000028  0.4224999979999993  0.4471600110000011
  0.0774999989999969  0.1549999989999975  0.4471600110000011
  0.0774999699999981  0.9224999950000026  0.0528400000000033
  0.0774999730000019  0.6549999459999967  0.0528400000000033
  0.3449999819999974  0.9224999950000026  0.0528400000000033
  0.4225000039999998  0.5774999960000002  0.5528399889999989
  0.4224999979999993  0.8449999950000020  0.5528399889999989
  0.1550000029999978  0.5774999960000002  0.5528399889999989
  0.4225000039999998  0.5774999960000002  0.9471600110000011
  0.1550000029999978  0.5774999960000002  0.9471600110000011
  0.4224999979999993  0.8449999950000020  0.9471600110000011
  0.0774999699999981  0.9224999950000026  0.4471600110000011
  0.3449999819999974  0.9224999950000026  0.4471600110000011
  0.0774999730000019  0.6549999459999967  0.4471600110000011
  0.5774999719999983  0.4224999979999993  0.0528400000000033
  0.5774999989999969  0.1549999989999975  0.0528400000000033
  0.8450000260000010  0.4224999979999993  0.0528400000000033
  0.9225000699999981  0.0774999989999969  0.5528399889999989
  0.9225000420000029  0.3449999979999987  0.5528399889999989
  0.6549999719999988  0.0774999989999969  0.5528399889999989
  0.9225000699999981  0.0774999989999969  0.9471600110000011
  0.6549999719999988  0.0774999989999969  0.9471600110000011
  0.9225000420000029  0.3449999979999987  0.9471600110000011
  0.5774999719999983  0.4224999979999993  0.4471600110000011
  0.8450000260000010  0.4224999979999993  0.4471600110000011
  0.5774999989999969  0.1549999989999975  0.4471600110000011
  0.5774999699999981  0.9224999950000026  0.0528400000000033
  0.5774999730000019  0.6549999459999967  0.0528400000000033
  0.8449999819999974  0.9224999950000026  0.0528400000000033
  0.9225000249999979  0.5774999960000002  0.5528399889999989
  0.9225000409999993  0.8449999950000020  0.5528399889999989
  0.6549999710000023  0.5774999960000002  0.5528399889999989
  0.9225000249999979  0.5774999960000002  0.9471600110000011
  0.6549999710000023  0.5774999960000002  0.9471600110000011
  0.9225000409999993  0.8449999950000020  0.9471600110000011
  0.5774999699999981  0.9224999950000026  0.4471600110000011
  0.8449999819999974  0.9224999950000026  0.4471600110000011
  0.5774999730000019  0.6549999459999967  0.4471600110000011
  0.2517399999999981  0.2482599960000016  0.1501799970000022
  0.2517399999999981  0.0034800000000033  0.1501799970000022
  0.4965200179999982  0.2482599960000016  0.1501799970000022
  0.2482599989999983  0.2517400010000017  0.6501799640000030
  0.2482599960000016  0.4965199920000032  0.6501799640000030
  0.0034800020000034  0.2517400010000017  0.6501799640000030
  0.2482599989999983  0.2517400010000017  0.8498200359999970
  0.0034800020000034  0.2517400010000017  0.8498200359999970
  0.2482599960000016  0.4965199920000032  0.8498200359999970
  0.2517399999999981  0.2482599960000016  0.3498199920000005
  0.4965200179999982  0.2482599960000016  0.3498199920000005
  0.2517399999999981  0.0034800000000033  0.3498199920000005
  0.2517399769999997  0.7482599929999978  0.1501799970000022
  0.2517400010000017  0.5034800020000034  0.1501799970000022
  0.4965199729999981  0.7482599929999978  0.1501799970000022
  0.2482600189999999  0.7517399979999979  0.6501799640000030
  0.2482599699999994  0.9965199390000024  0.6501799640000030
  0.0034800219999980  0.7517399979999979  0.6501799640000030
  0.2482600189999999  0.7517399979999979  0.8498200359999970
  0.0034800219999980  0.7517399979999979  0.8498200359999970
  0.2482599699999994  0.9965199390000024  0.8498200359999970
  0.2517399769999997  0.7482599929999978  0.3498199920000005
  0.4965199729999981  0.7482599929999978  0.3498199920000005
  0.2517400010000017  0.5034800020000034  0.3498199920000005
  0.7517399780000034  0.2482599960000016  0.1501799970000022
  0.7517399569999981  0.0034800000000033  0.1501799970000022
  0.9965200179999982  0.2482599960000016  0.1501799970000022
  0.7482600630000036  0.2517400010000017  0.6501799640000030
  0.7482600390000016  0.4965199920000032  0.6501799640000030
  0.5034800239999981  0.2517400010000017  0.6501799640000030
  0.7482600630000036  0.2517400010000017  0.8498200359999970
  0.5034800239999981  0.2517400010000017  0.8498200359999970
  0.7482600390000016  0.4965199920000032  0.8498200359999970
  0.7517399780000034  0.2482599960000016  0.3498199920000005
  0.9965200179999982  0.2482599960000016  0.3498199920000005
  0.7517399569999981  0.0034800000000033  0.3498199920000005
  0.7517399339999997  0.7482599929999978  0.1501799970000022
  0.7517399580000017  0.5034800020000034  0.1501799970000022
  0.9965199729999981  0.7482599929999978  0.1501799970000022
  0.7482600619999999  0.7517399979999979  0.6501799640000030
  0.7482600120000029  0.9965199390000024  0.6501799640000030
  0.5034800219999980  0.7517399979999979  0.6501799640000030
  0.7482600619999999  0.7517399979999979  0.8498200359999970
  0.5034800219999980  0.7517399979999979  0.8498200359999970
  0.7482600120000029  0.9965199390000024  0.8498200359999970
  0.7517399339999997  0.7482599929999978  0.3498199920000005
  0.9965199729999981  0.7482599929999978  0.3498199920000005
  0.7517399580000017  0.5034800020000034  0.3498199920000005
  0.3333299900000029  0.1666699980000033  0.8089999820000031
  0.1666700039999967  0.3333300110000010  0.3089999820000031
  0.1666700039999967  0.3333300110000010  0.1909999969999987
  0.3333299900000029  0.1666699980000033  0.6909999749999969
  0.3333299949999997  0.6666700070000005  0.8089999820000031
  0.1666700219999981  0.8333299829999987  0.3089999820000031
  0.1666700219999981  0.8333299829999987  0.1909999969999987
  0.3333299949999997  0.6666700070000005  0.6909999749999969
  0.8333299049999994  0.1666699980000033  0.8089999820000031
  0.6666700139999975  0.3333300110000010  0.3089999820000031
  0.6666700139999975  0.3333300110000010  0.1909999969999987
  0.8333299049999994  0.1666699980000033  0.6909999749999969
  0.8333299519999997  0.6666700070000005  0.8089999820000031
  0.6666700430000034  0.8333299829999987  0.3089999820000031
  0.6666700430000034  0.8333299829999987  0.1909999969999987
  0.8333299519999997  0.6666700070000005  0.6909999749999969
 
  0.00000000E+00  0.00000000E+00  0.00000000E+00
  0.00000000E+00  0.00000000E+00  0.00000000E+00
  0.00000000E+00  0.00000000E+00  0.00000000E+00
  0.00000000E+00  0.00000000E+00  0.00000000E+00
  0.00000000E+00  0.00000000E+00  0.00000000E+00
  0.00000000E+00  0.00000000E+00  0.00000000E+00
  0.00000000E+00  0.00000000E+00  0.00000000E+00
  0.00000000E+00  0.00000000E+00  0.00000000E+00
  0.00000000E+00  0.00000000E+00  0.00000000E+00
  0.00000000E+00  0.00000000E+00  0.00000000E+00
  0.00000000E+00  0.00000000E+00  0.00000000E+00
  0.00000000E+00  0.00000000E+00  0.00000000E+00
  0.00000000E+00  0.00000000E+00  0.00000000E+00
  0.00000000E+00  0.00000000E+00  0.00000000E+00
  0.00000000E+00  0.00000000E+00  0.00000000E+00
  0.00000000E+00  0.00000000E+00  0.00000000E+00
  0.00000000E+00  0.00000000E+00  0.00000000E+00
  0.00000000E+00  0.00000000E+00  0.00000000E+00
  0.00000000E+00  0.00000000E+00  0.00000000E+00
  0.00000000E+00  0.00000000E+00  0.00000000E+00
  0.00000000E+00  0.00000000E+00  0.00000000E+00
  0.00000000E+00  0.00000000E+00  0.00000000E+00
  0.00000000E+00  0.00000000E+00  0.00000000E+00
  0.00000000E+00  0.00000000E+00  0.00000000E+00
  0.00000000E+00  0.00000000E+00  0.00000000E+00
  0.00000000E+00  0.00000000E+00  0.00000000E+00
  0.00000000E+00  0.00000000E+00  0.00000000E+00
  0.00000000E+00  0.00000000E+00  0.00000000E+00
  0.00000000E+00  0.00000000E+00  0.00000000E+00
  0.00000000E+00  0.00000000E+00  0.00000000E+00
  0.00000000E+00  0.00000000E+00  0.00000000E+00
  0.00000000E+00  0.00000000E+00  0.00000000E+00
  0.00000000E+00  0.00000000E+00  0.00000000E+00
  0.00000000E+00  0.00000000E+00  0.00000000E+00
  0.00000000E+00  0.00000000E+00  0.00000000E+00
  0.00000000E+00  0.00000000E+00  0.00000000E+00
  0.00000000E+00  0.00000000E+00  0.00000000E+00
  0.00000000E+00  0.00000000E+00  0.00000000E+00
  0.00000000E+00  0.00000000E+00  0.00000000E+00
  0.00000000E+00  0.00000000E+00  0.00000000E+00
  0.00000000E+00  0.00000000E+00  0.00000000E+00
  0.00000000E+00  0.00000000E+00  0.00000000E+00
  0.00000000E+00  0.00000000E+00  0.00000000E+00
  0.00000000E+00  0.00000000E+00  0.00000000E+00
  0.00000000E+00  0.00000000E+00  0.00000000E+00
  0.00000000E+00  0.00000000E+00  0.00000000E+00
  0.00000000E+00  0.00000000E+00  0.00000000E+00
  0.00000000E+00  0.00000000E+00  0.00000000E+00
  0.00000000E+00  0.00000000E+00  0.00000000E+00
  0.00000000E+00  0.00000000E+00  0.00000000E+00
  0.00000000E+00  0.00000000E+00  0.00000000E+00
  0.00000000E+00  0.00000000E+00  0.00000000E+00
  0.00000000E+00  0.00000000E+00  0.00000000E+00
  0.00000000E+00  0.00000000E+00  0.00000000E+00
  0.00000000E+00  0.00000000E+00  0.00000000E+00
  0.00000000E+00  0.00000000E+00  0.00000000E+00
  0.00000000E+00  0.00000000E+00  0.00000000E+00
  0.00000000E+00  0.00000000E+00  0.00000000E+00
  0.00000000E+00  0.00000000E+00  0.00000000E+00
  0.00000000E+00  0.00000000E+00  0.00000000E+00
  0.00000000E+00  0.00000000E+00  0.00000000E+00
  0.00000000E+00  0.00000000E+00  0.00000000E+00
  0.00000000E+00  0.00000000E+00  0.00000000E+00
  0.00000000E+00  0.00000000E+00  0.00000000E+00
  0.00000000E+00  0.00000000E+00  0.00000000E+00
  0.00000000E+00  0.00000000E+00  0.00000000E+00
  0.00000000E+00  0.00000000E+00  0.00000000E+00
  0.00000000E+00  0.00000000E+00  0.00000000E+00
  0.00000000E+00  0.00000000E+00  0.00000000E+00
  0.00000000E+00  0.00000000E+00  0.00000000E+00
  0.00000000E+00  0.00000000E+00  0.00000000E+00
  0.00000000E+00  0.00000000E+00  0.00000000E+00
  0.00000000E+00  0.00000000E+00  0.00000000E+00
  0.00000000E+00  0.00000000E+00  0.00000000E+00
  0.00000000E+00  0.00000000E+00  0.00000000E+00
  0.00000000E+00  0.00000000E+00  0.00000000E+00
  0.00000000E+00  0.00000000E+00  0.00000000E+00
  0.00000000E+00  0.00000000E+00  0.00000000E+00
  0.00000000E+00  0.00000000E+00  0.00000000E+00
  0.00000000E+00  0.00000000E+00  0.00000000E+00
  0.00000000E+00  0.00000000E+00  0.00000000E+00
  0.00000000E+00  0.00000000E+00  0.00000000E+00
  0.00000000E+00  0.00000000E+00  0.00000000E+00
  0.00000000E+00  0.00000000E+00  0.00000000E+00
  0.00000000E+00  0.00000000E+00  0.00000000E+00
  0.00000000E+00  0.00000000E+00  0.00000000E+00
  0.00000000E+00  0.00000000E+00  0.00000000E+00
  0.00000000E+00  0.00000000E+00  0.00000000E+00
  0.00000000E+00  0.00000000E+00  0.00000000E+00
  0.00000000E+00  0.00000000E+00  0.00000000E+00
  0.00000000E+00  0.00000000E+00  0.00000000E+00
  0.00000000E+00  0.00000000E+00  0.00000000E+00
  0.00000000E+00  0.00000000E+00  0.00000000E+00
  0.00000000E+00  0.00000000E+00  0.00000000E+00
  0.00000000E+00  0.00000000E+00  0.00000000E+00
  0.00000000E+00  0.00000000E+00  0.00000000E+00
  0.00000000E+00  0.00000000E+00  0.00000000E+00
  0.00000000E+00  0.00000000E+00  0.00000000E+00
  0.00000000E+00  0.00000000E+00  0.00000000E+00
  0.00000000E+00  0.00000000E+00  0.00000000E+00
  0.00000000E+00  0.00000000E+00  0.00000000E+00
  0.00000000E+00  0.00000000E+00  0.00000000E+00
  0.00000000E+00  0.00000000E+00  0.00000000E+00
  0.00000000E+00  0.00000000E+00  0.00000000E+00
  0.00000000E+00  0.00000000E+00  0.00000000E+00
  0.00000000E+00  0.00000000E+00  0.00000000E+00
  0.00000000E+00  0.00000000E+00  0.00000000E+00
  0.00000000E+00  0.00000000E+00  0.00000000E+00
  0.00000000E+00  0.00000000E+00  0.00000000E+00
  0.00000000E+00  0.00000000E+00  0.00000000E+00
  0.00000000E+00  0.00000000E+00  0.00000000E+00
  0.00000000E+00  0.00000000E+00  0.00000000E+00
  0.00000000E+00  0.00000000E+00  0.00000000E+00
  0.00000000E+00  0.00000000E+00  0.00000000E+00
  0.00000000E+00  0.00000000E+00  0.00000000E+00
  0.00000000E+00  0.00000000E+00  0.00000000E+00
  0.00000000E+00  0.00000000E+00  0.00000000E+00
  0.00000000E+00  0.00000000E+00  0.00000000E+00
  0.00000000E+00  0.00000000E+00  0.00000000E+00
  0.00000000E+00  0.00000000E+00  0.00000000E+00
  0.00000000E+00  0.00000000E+00  0.00000000E+00
  0.00000000E+00  0.00000000E+00  0.00000000E+00
  0.00000000E+00  0.00000000E+00  0.00000000E+00
  0.00000000E+00  0.00000000E+00  0.00000000E+00
  0.00000000E+00  0.00000000E+00  0.00000000E+00
  0.00000000E+00  0.00000000E+00  0.00000000E+00
  0.00000000E+00  0.00000000E+00  0.00000000E+00
  0.00000000E+00  0.00000000E+00  0.00000000E+00
  0.00000000E+00  0.00000000E+00  0.00000000E+00
  0.00000000E+00  0.00000000E+00  0.00000000E+00
  0.00000000E+00  0.00000000E+00  0.00000000E+00
  0.00000000E+00  0.00000000E+00  0.00000000E+00
  0.00000000E+00  0.00000000E+00  0.00000000E+00
  0.00000000E+00  0.00000000E+00  0.00000000E+00
  0.00000000E+00  0.00000000E+00  0.00000000E+00
  0.00000000E+00  0.00000000E+00  0.00000000E+00
  0.00000000E+00  0.00000000E+00  0.00000000E+00
  0.00000000E+00  0.00000000E+00  0.00000000E+00
  0.00000000E+00  0.00000000E+00  0.00000000E+00
  0.00000000E+00  0.00000000E+00  0.00000000E+00
  0.00000000E+00  0.00000000E+00  0.00000000E+00
  0.00000000E+00  0.00000000E+00  0.00000000E+00
  0.00000000E+00  0.00000000E+00  0.00000000E+00
  0.00000000E+00  0.00000000E+00  0.00000000E+00
  0.00000000E+00  0.00000000E+00  0.00000000E+00
  0.00000000E+00  0.00000000E+00  0.00000000E+00
  0.00000000E+00  0.00000000E+00  0.00000000E+00
  0.00000000E+00  0.00000000E+00  0.00000000E+00
  0.00000000E+00  0.00000000E+00  0.00000000E+00
  0.00000000E+00  0.00000000E+00  0.00000000E+00
  0.00000000E+00  0.00000000E+00  0.00000000E+00
  0.00000000E+00  0.00000000E+00  0.00000000E+00
  0.00000000E+00  0.00000000E+00  0.00000000E+00
  0.00000000E+00  0.00000000E+00  0.00000000E+00
  0.00000000E+00  0.00000000E+00  0.00000000E+00
  0.00000000E+00  0.00000000E+00  0.00000000E+00
  0.00000000E+00  0.00000000E+00  0.00000000E+00
  0.00000000E+00  0.00000000E+00  0.00000000E+00
  0.00000000E+00  0.00000000E+00  0.00000000E+00
  0.00000000E+00  0.00000000E+00  0.00000000E+00
  0.00000000E+00  0.00000000E+00  0.00000000E+00
  0.00000000E+00  0.00000000E+00  0.00000000E+00
  0.00000000E+00  0.00000000E+00  0.00000000E+00
  0.00000000E+00  0.00000000E+00  0.00000000E+00
  0.00000000E+00  0.00000000E+00  0.00000000E+00
  0.00000000E+00  0.00000000E+00  0.00000000E+00
  0.00000000E+00  0.00000000E+00  0.00000000E+00
  0.00000000E+00  0.00000000E+00  0.00000000E+00
  0.00000000E+00  0.00000000E+00  0.00000000E+00
  0.00000000E+00  0.00000000E+00  0.00000000E+00
  0.00000000E+00  0.00000000E+00  0.00000000E+00
  0.00000000E+00  0.00000000E+00  0.00000000E+00
  0.00000000E+00  0.00000000E+00  0.00000000E+00
  0.00000000E+00  0.00000000E+00  0.00000000E+00
  0.00000000E+00  0.00000000E+00  0.00000000E+00
  0.00000000E+00  0.00000000E+00  0.00000000E+00
  0.00000000E+00  0.00000000E+00  0.00000000E+00
  0.00000000E+00  0.00000000E+00  0.00000000E+00
  0.00000000E+00  0.00000000E+00  0.00000000E+00
  0.00000000E+00  0.00000000E+00  0.00000000E+00
  0.00000000E+00  0.00000000E+00  0.00000000E+00
  0.00000000E+00  0.00000000E+00  0.00000000E+00
  0.00000000E+00  0.00000000E+00  0.00000000E+00
  0.00000000E+00  0.00000000E+00  0.00000000E+00
  0.00000000E+00  0.00000000E+00  0.00000000E+00
  0.00000000E+00  0.00000000E+00  0.00000000E+00
  0.00000000E+00  0.00000000E+00  0.00000000E+00
  0.00000000E+00  0.00000000E+00  0.00000000E+00
  0.00000000E+00  0.00000000E+00  0.00000000E+00
  0.00000000E+00  0.00000000E+00  0.00000000E+00
  0.00000000E+00  0.00000000E+00  0.00000000E+00
  0.00000000E+00  0.00000000E+00  0.00000000E+00
  0.00000000E+00  0.00000000E+00  0.00000000E+00
  0.00000000E+00  0.00000000E+00  0.00000000E+00
  0.00000000E+00  0.00000000E+00  0.00000000E+00
  0.00000000E+00  0.00000000E+00  0.00000000E+00
  0.00000000E+00  0.00000000E+00  0.00000000E+00
  0.00000000E+00  0.00000000E+00  0.00000000E+00
  0.00000000E+00  0.00000000E+00  0.00000000E+00
  0.00000000E+00  0.00000000E+00  0.00000000E+00
  0.00000000E+00  0.00000000E+00  0.00000000E+00
  0.00000000E+00  0.00000000E+00  0.00000000E+00
  0.00000000E+00  0.00000000E+00  0.00000000E+00
  0.00000000E+00  0.00000000E+00  0.00000000E+00
  0.00000000E+00  0.00000000E+00  0.00000000E+00
  0.00000000E+00  0.00000000E+00  0.00000000E+00
  0.00000000E+00  0.00000000E+00  0.00000000E+00
  0.00000000E+00  0.00000000E+00  0.00000000E+00
  0.00000000E+00  0.00000000E+00  0.00000000E+00
  0.00000000E+00  0.00000000E+00  0.00000000E+00
  0.00000000E+00  0.00000000E+00  0.00000000E+00
  0.00000000E+00  0.00000000E+00  0.00000000E+00
  0.00000000E+00  0.00000000E+00  0.00000000E+00
  0.00000000E+00  0.00000000E+00  0.00000000E+00
  0.00000000E+00  0.00000000E+00  0.00000000E+00
  0.00000000E+00  0.00000000E+00  0.00000000E+00
  0.00000000E+00  0.00000000E+00  0.00000000E+00
  0.00000000E+00  0.00000000E+00  0.00000000E+00
  0.00000000E+00  0.00000000E+00  0.00000000E+00
  0.00000000E+00  0.00000000E+00  0.00000000E+00
  0.00000000E+00  0.00000000E+00  0.00000000E+00
  0.00000000E+00  0.00000000E+00  0.00000000E+00
  0.00000000E+00  0.00000000E+00  0.00000000E+00
  0.00000000E+00  0.00000000E+00  0.00000000E+00
  0.00000000E+00  0.00000000E+00  0.00000000E+00
  0.00000000E+00  0.00000000E+00  0.00000000E+00
  0.00000000E+00  0.00000000E+00  0.00000000E+00
  0.00000000E+00  0.00000000E+00  0.00000000E+00
  0.00000000E+00  0.00000000E+00  0.00000000E+00
  0.00000000E+00  0.00000000E+00  0.00000000E+00
  0.00000000E+00  0.00000000E+00  0.00000000E+00
  0.00000000E+00  0.00000000E+00  0.00000000E+00
  0.00000000E+00  0.00000000E+00  0.00000000E+00
  0.00000000E+00  0.00000000E+00  0.00000000E+00
  0.00000000E+00  0.00000000E+00  0.00000000E+00
  0.00000000E+00  0.00000000E+00  0.00000000E+00
  0.00000000E+00  0.00000000E+00  0.00000000E+00
  0.00000000E+00  0.00000000E+00  0.00000000E+00
  0.00000000E+00  0.00000000E+00  0.00000000E+00
  0.00000000E+00  0.00000000E+00  0.00000000E+00
  0.00000000E+00  0.00000000E+00  0.00000000E+00
  0.00000000E+00  0.00000000E+00  0.00000000E+00
  0.00000000E+00  0.00000000E+00  0.00000000E+00
  0.00000000E+00  0.00000000E+00  0.00000000E+00
  0.00000000E+00  0.00000000E+00  0.00000000E+00
  0.00000000E+00  0.00000000E+00  0.00000000E+00
  0.00000000E+00  0.00000000E+00  0.00000000E+00
  0.00000000E+00  0.00000000E+00  0.00000000E+00
  0.00000000E+00  0.00000000E+00  0.00000000E+00
  0.00000000E+00  0.00000000E+00  0.00000000E+00
  0.00000000E+00  0.00000000E+00  0.00000000E+00
  0.00000000E+00  0.00000000E+00  0.00000000E+00
  0.00000000E+00  0.00000000E+00  0.00000000E+00
  0.00000000E+00  0.00000000E+00  0.00000000E+00
  0.00000000E+00  0.00000000E+00  0.00000000E+00
  0.00000000E+00  0.00000000E+00  0.00000000E+00
