supercell generated structure. e_col = 0
   1.00000000000000     
    11.4461019455892608    0.0000000000000000    0.0000000000000000
    -5.7230509727946304    9.9126150591517916    0.0000000000000000
     0.0000000000000000    0.0000000000000000   22.3824178009026831
   Al   Ca   Mg   O    Ti
    64     8    16   152    16
Direct
  0.0000006759051767 -0.0000006759051769  0.0003020583380919
 -0.0000006759051769  0.0000006759051767  0.5003020583380918
  0.0000006788593999  0.4999993277878429  0.0003020636501018
 -0.0000006828594003  0.5000006662121634  0.5003020636501019
  0.5000006692121601 -0.0000006808594001  0.0003020636501018
  0.4999993307878396  0.0000006808594001  0.5003020636501019
  0.5000006703646110  0.4999993246353922  0.0003020673630396
  0.4999993256353887  0.5000006693646145  0.5003020673630397
 -0.0000002312570298  0.0000002312570298  0.2389310523497961
  0.0000002312570298 -0.0000002312570298  0.7389310303497941
 -0.0000001323196438  0.5000003659835937  0.2389310415230468
  0.0000001283196434  0.4999996280164134  0.7389310195230445
  0.4999996310164101  0.0000001303196436  0.2389310415230468
  0.5000003689835903 -0.0000001303196436  0.7389310195230445
  0.4999996979600491  0.5000002970399544  0.2389310338976591
  0.5000002980399509  0.4999996969600525  0.7389310118976573
  0.4167512436217484  0.0832487264654929  0.1051210501641483
  0.4167513757257622  0.3335011151026207  0.1051205527828796
  0.1664990858238249  0.0832487080951406  0.1051205392795698
  0.0832487334654899  0.4167512706217470  0.6051210721641431
  0.0832487080951406  0.1664990888238287  0.6051205612795647
  0.3335011261026252  0.4167514047257611  0.6051205747828747
  0.0818283617360022  0.4181716450523380  0.8948990821597499
  0.3363472012006765  0.4181715224969341  0.8949004059047566
  0.0818285802007940  0.1636529919948466  0.8949004193493786
  0.4181716180523393  0.0818283547360052  0.3948990381597532
  0.1636529889948428  0.0818285802007940  0.3949003753493815
  0.4181714934969352  0.3363471902006721  0.3949003619047600
  0.4167511981891696  0.5832487668108314  0.1051210894331363
  0.4167512615486985  0.8335008537344908  0.1051205821602287
  0.1664991252655038  0.5832487324513009  0.1051205821602287
  0.0832487329292902  0.9167512140707160  0.6051210413215306
  0.0832485806127871  0.6664988690965660  0.6051205465731156
  0.3335011349034347  0.9167513623872190  0.6051205465731156
  0.0818283609602415  0.9181715860397651  0.8948991090798264
  0.3363472043489161  0.9181714747470607  0.8949004310222479
  0.0818284682529447  0.6636527996510840  0.8949004310222479
  0.4181715786598958  0.5818283863401050  0.3948990045082556
  0.1636530205526403  0.5818285988823764  0.3949003369857504
  0.4181713951176230  0.8363469584473544  0.3949003369857504
  0.9167512400707111  0.0832487299292864  0.1051210193215360
  0.9167513863872139  0.3335011499034324  0.1051205245731210
  0.6664988590965651  0.0832485816127837  0.1051205245731210
  0.5832487988108269  0.4167512271891684  0.6051211114331312
  0.5832487354512976  0.1664991402655086  0.6051206041602232
  0.8335008287344923  0.4167512615486985  0.6051206041602232
  0.5818284183401006  0.4181716076598946  0.8948990485082520
  0.8363469334473559  0.4181713951176230  0.8949003809857471
  0.5818286018823731  0.1636530355526451  0.8949003809857471
  0.9181716120397602  0.0818283579602377  0.3948990650798299
  0.6636527896510833  0.0818284692529413  0.3949003870222517
  0.9181714987470556  0.3363472193489138  0.3949003870222517
  0.9167512415345044  0.5832487233782523  0.1051210501641483
  0.9167512889048556  0.8335009051761708  0.1051205392795698
  0.6664988918973764  0.5832485892742388  0.1051205527828796
  0.5832487293782528  0.9167512175345095  0.6051210721641431
  0.5832486122742372  0.6664989038973774  0.6051205747828747
  0.8335008541761773  0.9167512359048618  0.6051205612795647
  0.5818283549476615  0.9181715892639969  0.8948990821597499
  0.8363469510051594  0.9181713637992086  0.8949004193493786
  0.5818284945030636  0.6636528287993260  0.8949004059047566
  0.9181716132639918  0.5818283489476610  0.3948990381597532
  0.6636528167993250  0.5818284715030653  0.3949003619047600
  0.9181714167992023  0.8363470020051530  0.3949003753493815
  0.3333139650374897  0.1666860580430078  0.2593228806430580
  0.1666860640430012  0.3333139860374879  0.7593229246430544
  0.3333139850795238  0.6666860169204759  0.2593228777665346
  0.1666861026458004  0.8333139023541968  0.7593229284432634
  0.8333138243541974  0.1666860786458055  0.2593228844432667
  0.6666860239204729  0.3333140010795251  0.7593229217665308
  0.8333138919569952  0.6666860319625135  0.2593228806430580
  0.6666860679625165  0.8333139229569942  0.7593229246430544
  0.1666670740969832  0.3333330582046918  0.0259289956426205
  0.3333330372046936  0.1666670680969898  0.5259289956426203
  0.3333340480473007  0.1666660520137079  0.9740649752996605
  0.1666660580137013  0.3333340690472988  0.4740649752996606
  0.1666670431103973  0.8333329618895990  0.0259290117828776
  0.3333329845126939  0.6666670174873064  0.5259289711918937
  0.3333339979154944  0.6666660040845053  0.9740650077283310
  0.1666660290136970  0.8333339759862997  0.4740649537732806
  0.6666670244873034  0.3333330005126953  0.0259289711918941
  0.8333328838895997  0.1666670191104025  0.5259290117828775
  0.8333338979863003  0.1666660050137021  0.9740649537732803
  0.6666660110845023  0.3333340139154957  0.4740650077283309
  0.6666669957953126  0.8333329129030121  0.0259289956426205
  0.8333328819030131  0.6666669597953097  0.5259289956426203
  0.8333338979862952  0.6666659489527027  0.9740649752996605
  0.6666659849527057  0.8333339289862942  0.4740649752996606
  0.0000003690255505 -0.0000003690255506  0.1533407452746590
 -0.0000003690255506  0.0000003690255505  0.6533407232746642
  0.0000009678184986 -0.0000009678184984  0.8502062872515485
 -0.0000009678184984  0.0000009678184986  0.3502062212515505
  0.0000003320012968  0.4999995709349745  0.1533407231727267
 -0.0000003360012972  0.5000004230650320  0.6533407011727317
  0.0000010054791828  0.4999990895316319  0.8502063083781011
 -0.0000010094791828  0.5000009044683748  0.3502062423781027
  0.5000004260650287 -0.0000003340012971  0.1533407231727267
  0.4999995739349712  0.0000003340012970  0.6533407011727317
  0.5000009074683714 -0.0000010074791826  0.8502063083781011
  0.4999990925316286  0.0000010074791829  0.3502062423781027
  0.5000004022522114  0.4999995927477920  0.1533407081635506
  0.4999995937477886  0.5000004012522149  0.6533406861635557
  0.5000009313691939  0.4999990636308093  0.8502063228350085
  0.4999990646308058  0.5000009303691973  0.3502062568350102
  0.1666671856620215  0.3333327632485985  0.9375904075167054
  0.3333327422486003  0.1666671796620282  0.4375904075167056
  0.3333341042176261  0.1666658063593906  0.0619392890223224
  0.1666658123593840  0.3333341252176243  0.5619392730223212
  0.1666672059458248  0.8333327990541722  0.9375903746431747
  0.3333327641250666  0.6666672378749333  0.4375904580942666
  0.3333341301022772  0.6666658718977158  0.0619392246208719
  0.1666658347655062  0.8333341702344980  0.5619393151963062
  0.6666672448749303  0.3333327801250679  0.9375904580942667
  0.8333327210541729  0.1666671819458299  0.4375903746431747
  0.8333340922344986  0.1666658107655113  0.0619393311963073
  0.6666658788977128  0.3333341461022786  0.5619392086208707
  0.6666672907514061  0.8333328013379738  0.9375904075167054
  0.8333327703379748  0.6666672547514031  0.4375904075167056
  0.8333341436406191  0.6666658927823699  0.0619392890223224
  0.6666659287823729  0.8333341746406181  0.5619392730223212
  0.0893412943209271  0.4106586423035248  0.2495288668096397
  0.0893546823731113  0.1786796756698007  0.2495294665139566
  0.3213200845052896  0.4106451798709672  0.2495294755803867
  0.4106586343035241  0.0893412833209297  0.7495288008096410
  0.4106451668709697  0.3213200745052888  0.7495294095803812
  0.1786796636697997  0.0893546693731138  0.7495294005139511
  0.0893412098993505  0.9106587741006554  0.2495288602571665
  0.0893546842810366  0.6786797677324372  0.2495294705211047
  0.3213202012675563  0.9106452917189684  0.2495294705211047
  0.4106585913620339  0.5893413686379628  0.7495288064258131
  0.4106451879249022  0.8213201527373556  0.7495294080325300
  0.1786798652626461  0.5893547800750949  0.7495294080325300
  0.5893413936379613  0.4106586013620347  0.2495288724258113
  0.5893547850750989  0.1786798782626436  0.2495294740325354
  0.8213201627373564  0.4106451899249023  0.2495294740325354
  0.9106587871006530  0.0893412198993513  0.7495287942571681
  0.9106453007189655  0.3213202012675563  0.7495294045210996
  0.6786797957324395  0.0893547022810381  0.7495294045210996
  0.5893413206964760  0.9106587106790766  0.2495288668096397
  0.5893547751290324  0.6786798944947051  0.2495294755803867
  0.8213203333301968  0.9106453246268930  0.2495294665139566
  0.9106587226790704  0.5893413276964731  0.7495288008096410
  0.9106453436268910  0.8213203553301986  0.7495294005139511
  0.6786799214947109  0.5893547901290301  0.7495294095803812
  0.0738532823313590  0.4261466069445135  0.0556162670475147
  0.0738528605229020  0.1477048799393835  0.0556156831468120
  0.3522950265872489  0.4261470509461301  0.0556156553503049
  0.4261465929445123  0.0738532883313524  0.5556162560475103
  0.4261470519461337  0.3522950195872448  0.5556156443503003
  0.1477048859393840  0.0738528605229020  0.5556156721468074
  0.4257681508607326  0.0742317583910356  0.9460401983960262
  0.1484654248237858  0.0742306126573479  0.9460407780826464
  0.4257693102457980  0.3515344743338464  0.9460408008418993
  0.0742317523910422  0.4257681648607338  0.4460401983960262
  0.3515344813338505  0.4257693092457944  0.4460408008418996
  0.0742306126573479  0.1484654188237924  0.4460407780826467
  0.0738533116985293  0.9261466533014713  0.0556162752029261
  0.0738528567879818  0.6477049001817577  0.0556156581277202
  0.3522950278182361  0.9261471112120226  0.0556156581277202
  0.4261466539763911  0.5738533460236090  0.5556162576330461
  0.4261470894428913  0.8522950749318121  0.5556156670890131
  0.1477049230681879  0.5738529045571079  0.5556156670890131
  0.4257681990835741  0.5742318009164260  0.9460401946564660
  0.1484654600854177  0.5742306442386185  0.9460407797665517
  0.4257693497613811  0.8515345379145821  0.9460407797665517
  0.0742317677859690  0.9257681972140319  0.4460401942066722
  0.3515344812509155  0.9257693519840573  0.4460407993095996
  0.0742306160159473  0.6484654467490785  0.4460407993095996
  0.5738533220236071  0.4261466479763906  0.0556162686330504
  0.5738529075571046  0.1477049190681875  0.0556156780890178
  0.8522951059318111  0.4261470894428913  0.0556156780890178
  0.9261467283014668  0.0738533406985281  0.5556162642029217
  0.9261471582120230  0.3522950438182375  0.5556156471277155
  0.6477049261817599  0.0738528827879769  0.5556156471277155
  0.9257682722140275  0.0742317967859678  0.9460401942066721
  0.6484654727490877  0.0742306420159423  0.9460407993095996
  0.9257693989840576  0.3515344972509168  0.9460407993095996
  0.5742317769164240  0.4257681930835736  0.4460401946564660
  0.8515345689145811  0.4257693497613811  0.4460407797665516
  0.5742306472386152  0.1484654560854174  0.4460407797665516
  0.5738533610554836  0.9261467056686471  0.0556162670475147
  0.5738529200538711  0.6477049244127506  0.0556156553503049
  0.8522951010606113  0.9261471334770974  0.0556156831468120
  0.9261467356686425  0.5738533870554857  0.5556162560475103
  0.9261471794770941  0.8522951140606160  0.5556156721468074
  0.6477049494127562  0.5738529430538695  0.5556156443503003
  0.9257682656089595  0.5742318291392655  0.9460401983960262
  0.6484654946661547  0.5742306847542056  0.9460408008418993
  0.9257694273426482  0.8515345751762141  0.9460407780826464
  0.5742318031392634  0.9257682356089642  0.4460401983960262
  0.8515345621762095  0.9257693813426515  0.4460407780826467
  0.5742306617542072  0.6484654696661490  0.4460408008418996
  0.2529941836532588  0.2470057054400136  0.1501482640314680
  0.2529948223138596  0.0059871808223795  0.1501504710917818
  0.4940129442597392  0.2470051704557043  0.1501504997286703
  0.2470057084400103  0.2529941846532625  0.6501482310314685
  0.2470051704557043  0.4940129182597442  0.6501504667286711
  0.0059871828223797  0.2529948233138632  0.6501504380917829
  0.2467564874098596  0.2532434224055867  0.8489465779555374
  0.0064956678298133  0.2532457396221677  0.8489423648210043
  0.2467542512791217  0.4935044071332206  0.8489423383518329
  0.2532434214055830  0.2467564844098629  0.3489465339555409
  0.4935044331332157  0.2467542512791217  0.3489422943518364
  0.2532457386221640  0.0064956658298131  0.3489423208210079
  0.2529940843228912  0.7470058856771067  0.1501483156737425
  0.2529946601594005  0.5059868219620168  0.1501505450776495
  0.4940131530379849  0.7470053338405986  0.1501505450776495
  0.2470057202342394  0.7529942967657585  0.6501482054583213
  0.2470050007306715  0.9940125954771858  0.6501504078556344
  0.0059873655228146  0.7529949672693260  0.6501504078556344
  0.2467565105402102  0.7532435064597879  0.8489465960729483
  0.0064958183118065  0.7532458547770589  0.8489423842432408
  0.2467541132229386  0.9935041426881936  0.8489423842432408
  0.2532433470301140  0.7467566229698835  0.3489464947821203
  0.4935045893978183  0.7467543792927454  0.3489422646987811
  0.2532456147072540  0.5064953856021831  0.3489422646987811
  0.7529942767657640  0.2470056972342411  0.1501482384583205
  0.7529949262693262  0.0059873435228199  0.1501504408556333
  0.9940126744771817  0.2470050267306736  0.1501504408556333
  0.7470059556771125  0.2529941083228932  0.6501482826737434
  0.7470053798406024  0.4940131720379900  0.6501505120776504
  0.5059868439620115  0.2529946601594005  0.6501505120776504
  0.7467566929698893  0.2532433710301160  0.8489465387821169
  0.5064954076021778  0.2532456147072540  0.8489423086987774
  0.7467544252927492  0.4935046083978235  0.8489423086987774
  0.7532434864597933  0.2467564875402118  0.3489465520729516
  0.9935042216881895  0.2467541392229408  0.3489423402432441
  0.7532458137770590  0.0064957963118118  0.3489423402432441
  0.7529942245599879  0.7470058093467368  0.1501482640314680
  0.7529947835442992  0.5059870757402621  0.1501504997286703
  0.9940127921776216  0.7470051706861364  0.1501504710917818
  0.7470058783467389  0.7529942885599861  0.6501482310314685
  0.7470051896861415  0.9940127581776259  0.6501504380917829
  0.5059870957402567  0.7529948235442954  0.6501504667286711
  0.7467566405944153  0.7532435095901368  0.8489465779555374
  0.5064956068667807  0.7532457427208779  0.8489423383518329
  0.7467542733778372  0.9935042731701925  0.8489423648210043
  0.7532434455901386  0.7467565715944131  0.3489465339555409
  0.9935043071701882  0.7467542543778320  0.3489423208210079
  0.7532457027208816  0.5064955868667862  0.3489422943518364
  0.3333360356458480  0.1666647068805148  0.8122869096456410
  0.1666647128805082  0.3333360566458461  0.3122869096456412
  0.1666680194196963  0.3333328929494083  0.1863468853830875
  0.3333328719494101  0.1666680134197029  0.6863468633830858
  0.3333357308477130  0.6666642711522874  0.8122868869283535
  0.1666645190922734  0.8333354859077232  0.3122869246074099
  0.1666677833424246  0.8333322216575720  0.1863468678047275
  0.3333325055400099  0.6666674964599901  0.6863468897730159
  0.8333354079077239  0.1666644950922785  0.8122869246074096
  0.6666642781522845  0.3333357468477143  0.3122868869283537
  0.6666675034599872  0.3333325215400113  0.1863469117730181
  0.8333321436575727  0.1666677593424297  0.6863468458047256
  0.8333352431194883  0.6666639613541552  0.8122869096456410
  0.6666639973541582  0.8333352741194873  0.3122869096456412
  0.6666671610505963  0.8333319675802990  0.1863468853830875
  0.8333319365803000  0.6666671250505933  0.6863468633830858
 
  0.00000000E+00  0.00000000E+00  0.00000000E+00
  0.00000000E+00  0.00000000E+00  0.00000000E+00
  0.00000000E+00  0.00000000E+00  0.00000000E+00
  0.00000000E+00  0.00000000E+00  0.00000000E+00
  0.00000000E+00  0.00000000E+00  0.00000000E+00
  0.00000000E+00  0.00000000E+00  0.00000000E+00
  0.00000000E+00  0.00000000E+00  0.00000000E+00
  0.00000000E+00  0.00000000E+00  0.00000000E+00
  0.00000000E+00  0.00000000E+00  0.00000000E+00
  0.00000000E+00  0.00000000E+00  0.00000000E+00
  0.00000000E+00  0.00000000E+00  0.00000000E+00
  0.00000000E+00  0.00000000E+00  0.00000000E+00
  0.00000000E+00  0.00000000E+00  0.00000000E+00
  0.00000000E+00  0.00000000E+00  0.00000000E+00
  0.00000000E+00  0.00000000E+00  0.00000000E+00
  0.00000000E+00  0.00000000E+00  0.00000000E+00
  0.00000000E+00  0.00000000E+00  0.00000000E+00
  0.00000000E+00  0.00000000E+00  0.00000000E+00
  0.00000000E+00  0.00000000E+00  0.00000000E+00
  0.00000000E+00  0.00000000E+00  0.00000000E+00
  0.00000000E+00  0.00000000E+00  0.00000000E+00
  0.00000000E+00  0.00000000E+00  0.00000000E+00
  0.00000000E+00  0.00000000E+00  0.00000000E+00
  0.00000000E+00  0.00000000E+00  0.00000000E+00
  0.00000000E+00  0.00000000E+00  0.00000000E+00
  0.00000000E+00  0.00000000E+00  0.00000000E+00
  0.00000000E+00  0.00000000E+00  0.00000000E+00
  0.00000000E+00  0.00000000E+00  0.00000000E+00
  0.00000000E+00  0.00000000E+00  0.00000000E+00
  0.00000000E+00  0.00000000E+00  0.00000000E+00
  0.00000000E+00  0.00000000E+00  0.00000000E+00
  0.00000000E+00  0.00000000E+00  0.00000000E+00
  0.00000000E+00  0.00000000E+00  0.00000000E+00
  0.00000000E+00  0.00000000E+00  0.00000000E+00
  0.00000000E+00  0.00000000E+00  0.00000000E+00
  0.00000000E+00  0.00000000E+00  0.00000000E+00
  0.00000000E+00  0.00000000E+00  0.00000000E+00
  0.00000000E+00  0.00000000E+00  0.00000000E+00
  0.00000000E+00  0.00000000E+00  0.00000000E+00
  0.00000000E+00  0.00000000E+00  0.00000000E+00
  0.00000000E+00  0.00000000E+00  0.00000000E+00
  0.00000000E+00  0.00000000E+00  0.00000000E+00
  0.00000000E+00  0.00000000E+00  0.00000000E+00
  0.00000000E+00  0.00000000E+00  0.00000000E+00
  0.00000000E+00  0.00000000E+00  0.00000000E+00
  0.00000000E+00  0.00000000E+00  0.00000000E+00
  0.00000000E+00  0.00000000E+00  0.00000000E+00
  0.00000000E+00  0.00000000E+00  0.00000000E+00
  0.00000000E+00  0.00000000E+00  0.00000000E+00
  0.00000000E+00  0.00000000E+00  0.00000000E+00
  0.00000000E+00  0.00000000E+00  0.00000000E+00
  0.00000000E+00  0.00000000E+00  0.00000000E+00
  0.00000000E+00  0.00000000E+00  0.00000000E+00
  0.00000000E+00  0.00000000E+00  0.00000000E+00
  0.00000000E+00  0.00000000E+00  0.00000000E+00
  0.00000000E+00  0.00000000E+00  0.00000000E+00
  0.00000000E+00  0.00000000E+00  0.00000000E+00
  0.00000000E+00  0.00000000E+00  0.00000000E+00
  0.00000000E+00  0.00000000E+00  0.00000000E+00
  0.00000000E+00  0.00000000E+00  0.00000000E+00
  0.00000000E+00  0.00000000E+00  0.00000000E+00
  0.00000000E+00  0.00000000E+00  0.00000000E+00
  0.00000000E+00  0.00000000E+00  0.00000000E+00
  0.00000000E+00  0.00000000E+00  0.00000000E+00
  0.00000000E+00  0.00000000E+00  0.00000000E+00
  0.00000000E+00  0.00000000E+00  0.00000000E+00
  0.00000000E+00  0.00000000E+00  0.00000000E+00
  0.00000000E+00  0.00000000E+00  0.00000000E+00
  0.00000000E+00  0.00000000E+00  0.00000000E+00
  0.00000000E+00  0.00000000E+00  0.00000000E+00
  0.00000000E+00  0.00000000E+00  0.00000000E+00
  0.00000000E+00  0.00000000E+00  0.00000000E+00
  0.00000000E+00  0.00000000E+00  0.00000000E+00
  0.00000000E+00  0.00000000E+00  0.00000000E+00
  0.00000000E+00  0.00000000E+00  0.00000000E+00
  0.00000000E+00  0.00000000E+00  0.00000000E+00
  0.00000000E+00  0.00000000E+00  0.00000000E+00
  0.00000000E+00  0.00000000E+00  0.00000000E+00
  0.00000000E+00  0.00000000E+00  0.00000000E+00
  0.00000000E+00  0.00000000E+00  0.00000000E+00
  0.00000000E+00  0.00000000E+00  0.00000000E+00
  0.00000000E+00  0.00000000E+00  0.00000000E+00
  0.00000000E+00  0.00000000E+00  0.00000000E+00
  0.00000000E+00  0.00000000E+00  0.00000000E+00
  0.00000000E+00  0.00000000E+00  0.00000000E+00
  0.00000000E+00  0.00000000E+00  0.00000000E+00
  0.00000000E+00  0.00000000E+00  0.00000000E+00
  0.00000000E+00  0.00000000E+00  0.00000000E+00
  0.00000000E+00  0.00000000E+00  0.00000000E+00
  0.00000000E+00  0.00000000E+00  0.00000000E+00
  0.00000000E+00  0.00000000E+00  0.00000000E+00
  0.00000000E+00  0.00000000E+00  0.00000000E+00
  0.00000000E+00  0.00000000E+00  0.00000000E+00
  0.00000000E+00  0.00000000E+00  0.00000000E+00
  0.00000000E+00  0.00000000E+00  0.00000000E+00
  0.00000000E+00  0.00000000E+00  0.00000000E+00
  0.00000000E+00  0.00000000E+00  0.00000000E+00
  0.00000000E+00  0.00000000E+00  0.00000000E+00
  0.00000000E+00  0.00000000E+00  0.00000000E+00
  0.00000000E+00  0.00000000E+00  0.00000000E+00
  0.00000000E+00  0.00000000E+00  0.00000000E+00
  0.00000000E+00  0.00000000E+00  0.00000000E+00
  0.00000000E+00  0.00000000E+00  0.00000000E+00
  0.00000000E+00  0.00000000E+00  0.00000000E+00
  0.00000000E+00  0.00000000E+00  0.00000000E+00
  0.00000000E+00  0.00000000E+00  0.00000000E+00
  0.00000000E+00  0.00000000E+00  0.00000000E+00
  0.00000000E+00  0.00000000E+00  0.00000000E+00
  0.00000000E+00  0.00000000E+00  0.00000000E+00
  0.00000000E+00  0.00000000E+00  0.00000000E+00
  0.00000000E+00  0.00000000E+00  0.00000000E+00
  0.00000000E+00  0.00000000E+00  0.00000000E+00
  0.00000000E+00  0.00000000E+00  0.00000000E+00
  0.00000000E+00  0.00000000E+00  0.00000000E+00
  0.00000000E+00  0.00000000E+00  0.00000000E+00
  0.00000000E+00  0.00000000E+00  0.00000000E+00
  0.00000000E+00  0.00000000E+00  0.00000000E+00
  0.00000000E+00  0.00000000E+00  0.00000000E+00
  0.00000000E+00  0.00000000E+00  0.00000000E+00
  0.00000000E+00  0.00000000E+00  0.00000000E+00
  0.00000000E+00  0.00000000E+00  0.00000000E+00
  0.00000000E+00  0.00000000E+00  0.00000000E+00
  0.00000000E+00  0.00000000E+00  0.00000000E+00
  0.00000000E+00  0.00000000E+00  0.00000000E+00
  0.00000000E+00  0.00000000E+00  0.00000000E+00
  0.00000000E+00  0.00000000E+00  0.00000000E+00
  0.00000000E+00  0.00000000E+00  0.00000000E+00
  0.00000000E+00  0.00000000E+00  0.00000000E+00
  0.00000000E+00  0.00000000E+00  0.00000000E+00
  0.00000000E+00  0.00000000E+00  0.00000000E+00
  0.00000000E+00  0.00000000E+00  0.00000000E+00
  0.00000000E+00  0.00000000E+00  0.00000000E+00
  0.00000000E+00  0.00000000E+00  0.00000000E+00
  0.00000000E+00  0.00000000E+00  0.00000000E+00
  0.00000000E+00  0.00000000E+00  0.00000000E+00
  0.00000000E+00  0.00000000E+00  0.00000000E+00
  0.00000000E+00  0.00000000E+00  0.00000000E+00
  0.00000000E+00  0.00000000E+00  0.00000000E+00
  0.00000000E+00  0.00000000E+00  0.00000000E+00
  0.00000000E+00  0.00000000E+00  0.00000000E+00
  0.00000000E+00  0.00000000E+00  0.00000000E+00
  0.00000000E+00  0.00000000E+00  0.00000000E+00
  0.00000000E+00  0.00000000E+00  0.00000000E+00
  0.00000000E+00  0.00000000E+00  0.00000000E+00
  0.00000000E+00  0.00000000E+00  0.00000000E+00
  0.00000000E+00  0.00000000E+00  0.00000000E+00
  0.00000000E+00  0.00000000E+00  0.00000000E+00
  0.00000000E+00  0.00000000E+00  0.00000000E+00
  0.00000000E+00  0.00000000E+00  0.00000000E+00
  0.00000000E+00  0.00000000E+00  0.00000000E+00
  0.00000000E+00  0.00000000E+00  0.00000000E+00
  0.00000000E+00  0.00000000E+00  0.00000000E+00
  0.00000000E+00  0.00000000E+00  0.00000000E+00
  0.00000000E+00  0.00000000E+00  0.00000000E+00
  0.00000000E+00  0.00000000E+00  0.00000000E+00
  0.00000000E+00  0.00000000E+00  0.00000000E+00
  0.00000000E+00  0.00000000E+00  0.00000000E+00
  0.00000000E+00  0.00000000E+00  0.00000000E+00
  0.00000000E+00  0.00000000E+00  0.00000000E+00
  0.00000000E+00  0.00000000E+00  0.00000000E+00
  0.00000000E+00  0.00000000E+00  0.00000000E+00
  0.00000000E+00  0.00000000E+00  0.00000000E+00
  0.00000000E+00  0.00000000E+00  0.00000000E+00
  0.00000000E+00  0.00000000E+00  0.00000000E+00
  0.00000000E+00  0.00000000E+00  0.00000000E+00
  0.00000000E+00  0.00000000E+00  0.00000000E+00
  0.00000000E+00  0.00000000E+00  0.00000000E+00
  0.00000000E+00  0.00000000E+00  0.00000000E+00
  0.00000000E+00  0.00000000E+00  0.00000000E+00
  0.00000000E+00  0.00000000E+00  0.00000000E+00
  0.00000000E+00  0.00000000E+00  0.00000000E+00
  0.00000000E+00  0.00000000E+00  0.00000000E+00
  0.00000000E+00  0.00000000E+00  0.00000000E+00
  0.00000000E+00  0.00000000E+00  0.00000000E+00
  0.00000000E+00  0.00000000E+00  0.00000000E+00
  0.00000000E+00  0.00000000E+00  0.00000000E+00
  0.00000000E+00  0.00000000E+00  0.00000000E+00
  0.00000000E+00  0.00000000E+00  0.00000000E+00
  0.00000000E+00  0.00000000E+00  0.00000000E+00
  0.00000000E+00  0.00000000E+00  0.00000000E+00
  0.00000000E+00  0.00000000E+00  0.00000000E+00
  0.00000000E+00  0.00000000E+00  0.00000000E+00
  0.00000000E+00  0.00000000E+00  0.00000000E+00
  0.00000000E+00  0.00000000E+00  0.00000000E+00
  0.00000000E+00  0.00000000E+00  0.00000000E+00
  0.00000000E+00  0.00000000E+00  0.00000000E+00
  0.00000000E+00  0.00000000E+00  0.00000000E+00
  0.00000000E+00  0.00000000E+00  0.00000000E+00
  0.00000000E+00  0.00000000E+00  0.00000000E+00
  0.00000000E+00  0.00000000E+00  0.00000000E+00
  0.00000000E+00  0.00000000E+00  0.00000000E+00
  0.00000000E+00  0.00000000E+00  0.00000000E+00
  0.00000000E+00  0.00000000E+00  0.00000000E+00
  0.00000000E+00  0.00000000E+00  0.00000000E+00
  0.00000000E+00  0.00000000E+00  0.00000000E+00
  0.00000000E+00  0.00000000E+00  0.00000000E+00
  0.00000000E+00  0.00000000E+00  0.00000000E+00
  0.00000000E+00  0.00000000E+00  0.00000000E+00
  0.00000000E+00  0.00000000E+00  0.00000000E+00
  0.00000000E+00  0.00000000E+00  0.00000000E+00
  0.00000000E+00  0.00000000E+00  0.00000000E+00
  0.00000000E+00  0.00000000E+00  0.00000000E+00
  0.00000000E+00  0.00000000E+00  0.00000000E+00
  0.00000000E+00  0.00000000E+00  0.00000000E+00
  0.00000000E+00  0.00000000E+00  0.00000000E+00
  0.00000000E+00  0.00000000E+00  0.00000000E+00
  0.00000000E+00  0.00000000E+00  0.00000000E+00
  0.00000000E+00  0.00000000E+00  0.00000000E+00
  0.00000000E+00  0.00000000E+00  0.00000000E+00
  0.00000000E+00  0.00000000E+00  0.00000000E+00
  0.00000000E+00  0.00000000E+00  0.00000000E+00
  0.00000000E+00  0.00000000E+00  0.00000000E+00
  0.00000000E+00  0.00000000E+00  0.00000000E+00
  0.00000000E+00  0.00000000E+00  0.00000000E+00
  0.00000000E+00  0.00000000E+00  0.00000000E+00
  0.00000000E+00  0.00000000E+00  0.00000000E+00
  0.00000000E+00  0.00000000E+00  0.00000000E+00
  0.00000000E+00  0.00000000E+00  0.00000000E+00
  0.00000000E+00  0.00000000E+00  0.00000000E+00
  0.00000000E+00  0.00000000E+00  0.00000000E+00
  0.00000000E+00  0.00000000E+00  0.00000000E+00
  0.00000000E+00  0.00000000E+00  0.00000000E+00
  0.00000000E+00  0.00000000E+00  0.00000000E+00
  0.00000000E+00  0.00000000E+00  0.00000000E+00
  0.00000000E+00  0.00000000E+00  0.00000000E+00
  0.00000000E+00  0.00000000E+00  0.00000000E+00
  0.00000000E+00  0.00000000E+00  0.00000000E+00
  0.00000000E+00  0.00000000E+00  0.00000000E+00
  0.00000000E+00  0.00000000E+00  0.00000000E+00
  0.00000000E+00  0.00000000E+00  0.00000000E+00
  0.00000000E+00  0.00000000E+00  0.00000000E+00
  0.00000000E+00  0.00000000E+00  0.00000000E+00
  0.00000000E+00  0.00000000E+00  0.00000000E+00
  0.00000000E+00  0.00000000E+00  0.00000000E+00
  0.00000000E+00  0.00000000E+00  0.00000000E+00
  0.00000000E+00  0.00000000E+00  0.00000000E+00
  0.00000000E+00  0.00000000E+00  0.00000000E+00
  0.00000000E+00  0.00000000E+00  0.00000000E+00
  0.00000000E+00  0.00000000E+00  0.00000000E+00
  0.00000000E+00  0.00000000E+00  0.00000000E+00
  0.00000000E+00  0.00000000E+00  0.00000000E+00
  0.00000000E+00  0.00000000E+00  0.00000000E+00
  0.00000000E+00  0.00000000E+00  0.00000000E+00
  0.00000000E+00  0.00000000E+00  0.00000000E+00
  0.00000000E+00  0.00000000E+00  0.00000000E+00
  0.00000000E+00  0.00000000E+00  0.00000000E+00
  0.00000000E+00  0.00000000E+00  0.00000000E+00
  0.00000000E+00  0.00000000E+00  0.00000000E+00
  0.00000000E+00  0.00000000E+00  0.00000000E+00
  0.00000000E+00  0.00000000E+00  0.00000000E+00
  0.00000000E+00  0.00000000E+00  0.00000000E+00
  0.00000000E+00  0.00000000E+00  0.00000000E+00
  0.00000000E+00  0.00000000E+00  0.00000000E+00
  0.00000000E+00  0.00000000E+00  0.00000000E+00
  0.00000000E+00  0.00000000E+00  0.00000000E+00
  0.00000000E+00  0.00000000E+00  0.00000000E+00
