SYSTEM = Ca2Al24O38_4e_min_max_disp
ISIF = 3
PREC = Accurate
ENCUT = 520
EDIFF = 1E-7
IBRION = 2
NSW = 100
ISMEAR = 0
SIGMA = 0.05
LWAVE  = .FALSE.
LCHARG = .FALSE.
LREAL  = .FALSE.
ISPIN = 2
LORBIT = 11
VOSKOWN = 1
NPAR = 10
