supercell generated structure. e_col = 0.0000000000 ev
1.0
       11.1387996674         0.0000000000         0.0000000000
       -5.5693998337         9.6464834796         0.0000000000
        0.0000000000         0.0000000000        21.7814998627
   Al   Ca   Mg    O   Ti
   64    8   16  152   16
Direct
     0.000000000         0.000000000         0.000000000
     0.000000000         0.000000000         0.500000000
    -0.000000002         0.499999997         0.000000000
    -0.000000002         0.499999997         0.500000000
     0.500000000         0.000000000         0.000000000
     0.500000000         0.000000000         0.500000000
     0.499999998         0.499999997         0.000000000
     0.499999998         0.499999997         0.500000000
     0.000000000         0.000000000         0.250000000
     0.000000000         0.000000000         0.749999978
    -0.000000002         0.499999997         0.250000000
    -0.000000002         0.499999997         0.749999978
     0.500000000         0.000000000         0.250000000
     0.500000000         0.000000000         0.749999978
     0.499999998         0.499999997         0.250000000
     0.499999998         0.499999997         0.749999978
     0.415899968         0.084100002         0.110079998
     0.415899966         0.331800017         0.110079998
     0.168200002         0.084100002         0.110079998
     0.084100009         0.415899995         0.610080020
     0.084100002         0.168200005         0.610080020
     0.331800028         0.415899995         0.610080020
     0.084100009         0.415899995         0.889920024
     0.331800028         0.415899995         0.889920024
     0.084100002         0.168200005         0.889920024
     0.415899968         0.084100002         0.389919980
     0.168200002         0.084100002         0.389919980
     0.415899966         0.331800017         0.389919980
     0.415899966         0.584099999         0.110079998
     0.415899995         0.831799989         0.110079998
     0.168199990         0.584099999         0.110079998
     0.084100005         0.915899942         0.610080020
     0.084100001         0.668200002         0.610080020
     0.331800002         0.915899942         0.610080020
     0.084100005         0.915899942         0.889920024
     0.331800002         0.915899942         0.889920024
     0.084100001         0.668200002         0.889920024
     0.415899966         0.584099999         0.389919980
     0.168199990         0.584099999         0.389919980
     0.415899995         0.831799989         0.389919980
     0.915899968         0.084100002         0.110079998
     0.915899966         0.331800017         0.110079998
     0.668199992         0.084100002         0.110079998
     0.584100031         0.415899995         0.610080020
     0.584100002         0.168200005         0.610080020
     0.831799964         0.415899995         0.610080020
     0.584100031         0.415899995         0.889920024
     0.831799964         0.415899995         0.889920024
     0.584100002         0.168200005         0.889920024
     0.915899968         0.084100002         0.389919980
     0.668199992         0.084100002         0.389919980
     0.915899966         0.331800017         0.389919980
     0.915899966         0.584099999         0.110079998
     0.915899995         0.831799989         0.110079998
     0.668199990         0.584099999         0.110079998
     0.584100005         0.915899942         0.610080020
     0.584100022         0.668200002         0.610080020
     0.831799938         0.915899942         0.610080020
     0.584100005         0.915899942         0.889920024
     0.831799938         0.915899942         0.889920024
     0.584100022         0.668200002         0.889920024
     0.915899966         0.584099999         0.389919980
     0.668199990         0.584099999         0.389919980
     0.915899995         0.831799989         0.389919980
     0.333329990         0.166669998         0.250169990
     0.166670004         0.333330011         0.750170034
     0.333329995         0.666670007         0.250169990
     0.166670022         0.833329983         0.750170034
     0.833329905         0.166669998         0.250169990
     0.666670014         0.333330011         0.750170034
     0.833329952         0.666670007         0.250169990
     0.666670043         0.833329983         0.750170034
     0.166670004         0.333330011         0.028869998
     0.333329990         0.166669998         0.528869998
     0.333329990         0.166669998         0.971130002
     0.166670004         0.333330011         0.471130002
     0.166670022         0.833329983         0.028869998
     0.333329995         0.666670007         0.528869998
     0.333329995         0.666670007         0.971130002
     0.166670022         0.833329983         0.471130002
     0.666670014         0.333330011         0.028869998
     0.833329905         0.166669998         0.528869998
     0.833329905         0.166669998         0.971130002
     0.666670014         0.333330011         0.471130002
     0.666670043         0.833329983         0.028869998
     0.833329952         0.666670007         0.528869998
     0.833329952         0.666670007         0.971130002
     0.666670043         0.833329983         0.471130002
     0.000000000         0.000000000         0.151360000
     0.000000000         0.000000000         0.651359978
    -0.000000000         0.000000000         0.848640066
     0.000000000         0.000000000         0.348640000
    -0.000000002         0.499999997         0.151360000
    -0.000000002         0.499999997         0.651359978
    -0.000000002         0.499999997         0.848640066
    -0.000000002         0.499999997         0.348640000
     0.500000000         0.000000000         0.151360000
     0.500000000         0.000000000         0.651359978
     0.500000000         0.000000000         0.848640066
     0.500000000         0.000000000         0.348640000
     0.499999998         0.499999997         0.151360000
     0.499999998         0.499999997         0.651359978
     0.499999998         0.499999997         0.848640066
     0.499999998         0.499999997         0.348640000
     0.166670004         0.333330011         0.945840020
     0.333329990         0.166669998         0.445840020
     0.333329990         0.166669998         0.054159996
     0.166670004         0.333330011         0.554159980
     0.166670022         0.833329983         0.945840020
     0.333329995         0.666670007         0.445840020
     0.333329995         0.666670007         0.054159996
     0.166670022         0.833329983         0.554159980
     0.666670014         0.333330011         0.945840020
     0.833329905         0.166669998         0.445840020
     0.833329905         0.166669998         0.054159996
     0.666670014         0.333330011         0.554159980
     0.666670043         0.833329983         0.945840020
     0.833329952         0.666670007         0.445840020
     0.833329952         0.666670007         0.054159996
     0.666670043         0.833329983         0.554159980
     0.090840006         0.409159978         0.250329998
     0.090840008         0.181690011         0.250329998
     0.318310008         0.409159978         0.250329998
     0.409159970         0.090839995         0.750329932
     0.409159965         0.318309998         0.750329932
     0.181689999         0.090839995         0.750329932
     0.090839985         0.909159999         0.250329998
     0.090839977         0.681689971         0.250329998
     0.318309998         0.909159999         0.250329998
     0.409159968         0.590839992         0.750329932
     0.409159976         0.818310020         0.750329932
     0.181689998         0.590839992         0.750329932
     0.590840017         0.409159978         0.250329998
     0.590839997         0.181690011         0.250329998
     0.818310030         0.409159978         0.250329998
     0.909160012         0.090839995         0.750329932
     0.909160008         0.318309998         0.750329932
     0.681689999         0.090839995         0.750329932
     0.590839985         0.909159999         0.250329998
     0.590839977         0.681689971         0.250329998
     0.818309998         0.909159999         0.250329998
     0.909160011         0.590839992         0.750329932
     0.909160018         0.818310020         0.750329932
     0.681689998         0.590839992         0.750329932
     0.077499993         0.422499998         0.052840000
     0.077499999         0.154999999         0.052840000
     0.345000005         0.422499998         0.052840000
     0.422499984         0.077499999         0.552839989
     0.422499999         0.344999998         0.552839989
     0.155000005         0.077499999         0.552839989
     0.422499984         0.077499999         0.947160011
     0.155000005         0.077499999         0.947160011
     0.422499999         0.344999998         0.947160011
     0.077499993         0.422499998         0.447160011
     0.345000005         0.422499998         0.447160011
     0.077499999         0.154999999         0.447160011
     0.077499970         0.922499995         0.052840000
     0.077499973         0.654999946         0.052840000
     0.344999982         0.922499995         0.052840000
     0.422500004         0.577499996         0.552839989
     0.422499998         0.844999995         0.552839989
     0.155000003         0.577499996         0.552839989
     0.422500004         0.577499996         0.947160011
     0.155000003         0.577499996         0.947160011
     0.422499998         0.844999995         0.947160011
     0.077499970         0.922499995         0.447160011
     0.344999982         0.922499995         0.447160011
     0.077499973         0.654999946         0.447160011
     0.577499972         0.422499998         0.052840000
     0.577499999         0.154999999         0.052840000
     0.845000026         0.422499998         0.052840000
     0.922500070         0.077499999         0.552839989
     0.922500042         0.344999998         0.552839989
     0.654999972         0.077499999         0.552839989
     0.922500070         0.077499999         0.947160011
     0.654999972         0.077499999         0.947160011
     0.922500042         0.344999998         0.947160011
     0.577499972         0.422499998         0.447160011
     0.845000026         0.422499998         0.447160011
     0.577499999         0.154999999         0.447160011
     0.577499970         0.922499995         0.052840000
     0.577499973         0.654999946         0.052840000
     0.844999982         0.922499995         0.052840000
     0.922500025         0.577499996         0.552839989
     0.922500041         0.844999995         0.552839989
     0.654999971         0.577499996         0.552839989
     0.922500025         0.577499996         0.947160011
     0.654999971         0.577499996         0.947160011
     0.922500041         0.844999995         0.947160011
     0.577499970         0.922499995         0.447160011
     0.844999982         0.922499995         0.447160011
     0.577499973         0.654999946         0.447160011
     0.251740000         0.248259996         0.150179997
     0.251740000         0.003480000         0.150179997
     0.496520018         0.248259996         0.150179997
     0.248259999         0.251740001         0.650179964
     0.248259996         0.496519992         0.650179964
     0.003480002         0.251740001         0.650179964
     0.248259999         0.251740001         0.849820036
     0.003480002         0.251740001         0.849820036
     0.248259996         0.496519992         0.849820036
     0.251740000         0.248259996         0.349819992
     0.496520018         0.248259996         0.349819992
     0.251740000         0.003480000         0.349819992
     0.251739977         0.748259993         0.150179997
     0.251740001         0.503480002         0.150179997
     0.496519973         0.748259993         0.150179997
     0.248260019         0.751739998         0.650179964
     0.248259970         0.996519939         0.650179964
     0.003480022         0.751739998         0.650179964
     0.248260019         0.751739998         0.849820036
     0.003480022         0.751739998         0.849820036
     0.248259970         0.996519939         0.849820036
     0.251739977         0.748259993         0.349819992
     0.496519973         0.748259993         0.349819992
     0.251740001         0.503480002         0.349819992
     0.751739978         0.248259996         0.150179997
     0.751739957         0.003480000         0.150179997
     0.996520018         0.248259996         0.150179997
     0.748260063         0.251740001         0.650179964
     0.748260039         0.496519992         0.650179964
     0.503480024         0.251740001         0.650179964
     0.748260063         0.251740001         0.849820036
     0.503480024         0.251740001         0.849820036
     0.748260039         0.496519992         0.849820036
     0.751739978         0.248259996         0.349819992
     0.996520018         0.248259996         0.349819992
     0.751739957         0.003480000         0.349819992
     0.751739934         0.748259993         0.150179997
     0.751739958         0.503480002         0.150179997
     0.996519973         0.748259993         0.150179997
     0.748260062         0.751739998         0.650179964
     0.748260012         0.996519939         0.650179964
     0.503480022         0.751739998         0.650179964
     0.748260062         0.751739998         0.849820036
     0.503480022         0.751739998         0.849820036
     0.748260012         0.996519939         0.849820036
     0.751739934         0.748259993         0.349819992
     0.996519973         0.748259993         0.349819992
     0.751739958         0.503480002         0.349819992
     0.333329990         0.166669998         0.808999982
     0.166670004         0.333330011         0.308999982
     0.166670004         0.333330011         0.190999997
     0.333329990         0.166669998         0.690999975
     0.333329995         0.666670007         0.808999982
     0.166670022         0.833329983         0.308999982
     0.166670022         0.833329983         0.190999997
     0.333329995         0.666670007         0.690999975
     0.833329905         0.166669998         0.808999982
     0.666670014         0.333330011         0.308999982
     0.666670014         0.333330011         0.190999997
     0.833329905         0.166669998         0.690999975
     0.833329952         0.666670007         0.808999982
     0.666670043         0.833329983         0.308999982
     0.666670043         0.833329983         0.190999997
     0.833329952         0.666670007         0.690999975
