supercell generated structure. e_col = 0
   1.00000000000000     
    11.4461019455892608    0.0000000000000000    0.0000000000000000
    -5.7230509727946304    9.9126150591517916    0.0000000000000000
     0.0000000000000000    0.0000000000000000   22.3824178009026831
   Al   Ca   Mg   O    Ti
    64     8    16   152    16
Direct
  0.9999999951750524  0.0000000048249476  0.0001278492652830
  0.0000000048249476  0.9999999951750524  0.5001278492652830
  0.9999999931750523  0.5000000018249509  0.0001278492652830
  0.0000000028249474  0.4999999921750558  0.5001278492652830
  0.4999999951750524  0.0000000048249476  0.0001278492652830
  0.5000000048249476  0.9999999951750524  0.5001278492652830
  0.4999999931750523  0.5000000018249509  0.0001278492652830
  0.5000000028249474  0.4999999921750558  0.5001278492652830
  0.0000055758612021  0.9999944241387979  0.2466753404177737
  0.9999944241387979  0.0000055758612021  0.7466753184177719
  0.0000055738612019  0.4999944211388012  0.2466753404177737
  0.9999944221387977  0.5000055728612054  0.7466753184177719
  0.5000055758612021  0.9999944241387979  0.2466753404177737
  0.4999944241387979  0.0000055758612021  0.7466753184177719
  0.5000055738612019  0.4999944211388012  0.2466753404177737
  0.4999944221387977  0.5000055728612054  0.7466753184177719
  0.4172372623773271  0.0827627076226705  0.1059820146035122
  0.4172379751413047  0.3344723321691774  0.1059803014301224
  0.1655276868308206  0.0827619928586927  0.1059803014301224
  0.0827627146226675  0.4172372893773257  0.6059820366035069
  0.0827619928586927  0.1655276898308244  0.6059803234301171
  0.3344723431691818  0.4172380041413035  0.6059803234301171
  0.0823891175610356  0.4176108864389576  0.8940840988718932
  0.3352195830345153  0.4176116164220645  0.8940857756981515
  0.0823883805779317  0.1647804499654910  0.8940857756981515
  0.4176108594389589  0.0823891105610386  0.3940840548718967
  0.1647804469654872  0.0823883805779317  0.3940857316981550
  0.4176115874220656  0.3352195720345108  0.3940857316981550
  0.4172372603773269  0.5827627046226738  0.1059820146035122
  0.4172380041413035  0.8344723041691751  0.1059803014301224
  0.1655276748308196  0.5827619898586960  0.1059803014301224
  0.0827627106226743  0.9172372363773320  0.6059820366035069
  0.0827619918586961  0.6655276868308206  0.6059803234301171
  0.3344723171691797  0.9172379511413098  0.6059803234301171
  0.0823891135610424  0.9176108334389639  0.8940840988718932
  0.3352195570345131  0.9176115634220707  0.8940857756981515
  0.0823883795779352  0.6647804469654872  0.8940857756981515
  0.4176108574389588  0.5823891075610419  0.3940840548718967
  0.1647804349654862  0.5823883775779350  0.3940857316981550
  0.4176116164220645  0.8352195440345085  0.3940857316981550
  0.9172372623773271  0.0827627076226705  0.1059820146035122
  0.9172379751413047  0.3344723321691774  0.1059803014301224
  0.6655276768308198  0.0827619928586927  0.1059803014301224
  0.5827627366226693  0.4172372893773257  0.6059820366035069
  0.5827619928586927  0.1655276898308244  0.6059803234301171
  0.8344722791691765  0.4172380041413035  0.6059803234301171
  0.5823891395610374  0.4176108864389576  0.8940840988718932
  0.8352195190345100  0.4176116164220645  0.8940857756981515
  0.5823883805779317  0.1647804499654910  0.8940857756981515
  0.9176108594389589  0.0823891105610386  0.3940840548718967
  0.6647804369654864  0.0823883805779317  0.3940857316981550
  0.9176115874220656  0.3352195720345108  0.3940857316981550
  0.9172372603773269  0.5827627046226738  0.1059820146035122
  0.9172380041413035  0.8344723041691751  0.1059803014301224
  0.6655276748308196  0.5827619898586960  0.1059803014301224
  0.5827627106226743  0.9172372363773320  0.6059820366035069
  0.5827620128586943  0.6655276868308206  0.6059803234301171
  0.8344722531691815  0.9172379511413098  0.6059803234301171
  0.5823891135610424  0.9176108334389639  0.8940840988718932
  0.8352194930345149  0.9176115634220707  0.8940857756981515
  0.5823884005779334  0.6647804469654872  0.8940857756981515
  0.9176108574389588  0.5823891075610419  0.3940840548718967
  0.6647804349654862  0.5823883775779350  0.3940857316981550
  0.9176116164220645  0.8352195440345085  0.3940857316981550
  0.3333319547644393  0.1666680332355668  0.2496417163694957
  0.1666680392355602  0.3333319757644375  0.7496417603694923
  0.3333319597644362  0.6666680422355640  0.2496417163694957
  0.1666680572355617  0.8333319477644352  0.7496417603694923
  0.8333318697644359  0.1666680332355668  0.2496417163694957
  0.6666680492355610  0.3333319757644375  0.7496417603694923
  0.8333319167644362  0.6666680422355640  0.2496417163694957
  0.6666680782355670  0.8333319477644352  0.7496417603694923
  0.1666675247494069  0.3333324902505908  0.0258821585026254
  0.3333324692505926  0.1666675187494135  0.5258821585026254
  0.3333324929387160  0.1666674950612901  0.9740929336445419
  0.1666675010612835  0.3333325139387142  0.4740929336445419
  0.1666675427494084  0.8333324622505884  0.0258821585026254
  0.3333324742505894  0.6666675277494107  0.5258821585026254
  0.3333324979387129  0.6666675040612873  0.9740929336445419
  0.1666675190612850  0.8333324859387119  0.4740929336445419
  0.6666675347494078  0.3333324902505908  0.0258821585026254
  0.8333323842505891  0.1666675187494135  0.5258821585026254
  0.8333324079387125  0.1666674950612901  0.9740929336445419
  0.6666675110612843  0.3333325139387142  0.4740929336445419
  0.6666675637494137  0.8333324622505884  0.0258821585026254
  0.8333324312505894  0.6666675277494107  0.5258821585026254
  0.8333324549387129  0.6666675040612873  0.9740929336445419
  0.6666675400612903  0.8333324859387119  0.4740929336445419
  0.0000019610184623  0.9999980389815377  0.1540110741806870
  0.9999980389815377  0.0000019610184623  0.6540110521806923
  0.9999980442042897  0.0000019557957103  0.8476279205902699
  0.0000019557957103  0.9999980442042897  0.3476278545902716
  0.0000019590184621  0.4999980359815410  0.1540110741806870
  0.9999980369815376  0.5000019580184656  0.6540110521806923
  0.9999980422042896  0.5000019527957136  0.8476279205902699
  0.0000019537957101  0.4999980412042930  0.3476278545902716
  0.5000019610184623  0.9999980389815377  0.1540110741806870
  0.4999980389815377  0.0000019610184623  0.6540110521806923
  0.4999980442042897  0.0000019557957103  0.8476279205902699
  0.5000019557957103  0.9999980442042897  0.3476278545902716
  0.5000019590184621  0.4999980359815410  0.1540110741806870
  0.4999980369815376  0.5000019580184656  0.6540110521806923
  0.4999980422042896  0.5000019527957136  0.8476279205902699
  0.5000019537957101  0.4999980412042930  0.3476278545902716
  0.1666634077685103  0.3333366072314874  0.9376147008805944
  0.3333365862314892  0.1666634017685169  0.4376147008805944
  0.3333366009433476  0.1666633870566585  0.0623871672613205
  0.1666633930566519  0.3333366219433458  0.5623871512613192
  0.1666634257685118  0.8333365792314851  0.9376147008805944
  0.3333365912314861  0.6666634107685141  0.4376147008805944
  0.3333366059433445  0.6666633960566486  0.0623871672613205
  0.1666634110566534  0.8333365939433506  0.5623871512613192
  0.6666634177685111  0.3333366072314874  0.9376147008805944
  0.8333365012314857  0.1666634017685169  0.4376147008805944
  0.8333365159433512  0.1666633870566585  0.0623871672613205
  0.6666634030566456  0.3333366219433458  0.5623871512613192
  0.6666634467685171  0.8333365792314851  0.9376147008805944
  0.8333365482314861  0.6666634107685141  0.4376147008805944
  0.8333365629433516  0.6666633960566486  0.0623871672613205
  0.6666634320566516  0.8333365939433506  0.5623871512613192
  0.0897697112472926  0.4102302727527061  0.2497756585074029
  0.0897844227099185  0.1795216255210121  0.2497756766753483
  0.3204783934789859  0.4102155632900804  0.2497756766753483
  0.4102302647527054  0.0897697002472952  0.7497755925074046
  0.4102155502900828  0.3204783834789851  0.7497756106753428
  0.1795216135210111  0.0897844097099210  0.7497756106753428
  0.0897696902472944  0.9102302937527114  0.2497756585074029
  0.0897843917099195  0.6795215855210088  0.2497756766753483
  0.3204783834789851  0.9102155842900856  0.2497756766753483
  0.4102302627527052  0.5897696972472914  0.7497755925074046
  0.4102155612900802  0.8204784054789869  0.7497756106753428
  0.1795216125210146  0.5897844067099172  0.7497756106753428
  0.5897697222472900  0.4102302727527061  0.2497756585074029
  0.5897844117099211  0.1795216255210121  0.2497756766753483
  0.8204784154789877  0.4102155632900804  0.2497756766753483
  0.9102303067527089  0.0897697002472952  0.7497755925074046
  0.9102155932900828  0.3204783834789851  0.7497756106753428
  0.6795216135210111  0.0897844097099210  0.7497756106753428
  0.5897696902472944  0.9102302937527114  0.2497756585074029
  0.5897843917099195  0.6795215855210088  0.2497756766753483
  0.8204783834789851  0.9102155842900856  0.2497756766753483
  0.9102303057527052  0.5897696972472914  0.7497755925074046
  0.9102156032900837  0.8204784054789869  0.7497756106753428
  0.6795216125210146  0.5897844067099172  0.7497756106753428
  0.0739140565621241  0.4260859344378787  0.0557899556225152
  0.0739115812917035  0.1478258246922266  0.0557879711759384
  0.3521741793077737  0.4260884157082927  0.0557879711759384
  0.4260859204378775  0.0739140625621175  0.5557899446225107
  0.4260884167082963  0.3521741723077696  0.5557879601759339
  0.1478258306922271  0.0739115812917035  0.5557879601759339
  0.4260132716126463  0.0739867113873487  0.9450272838850324
  0.1479711920548255  0.0739842769845822  0.9450292447124866
  0.4260157210154176  0.3520288109451712  0.9450292447124866
  0.0739867053873553  0.4260132856126475  0.4450272838850324
  0.3520288179451754  0.4260157200154140  0.4450292447124866
  0.0739842769845822  0.1479711860548321  0.4450292447124866
  0.0739140335621187  0.9260859314378820  0.0557899556225152
  0.0739115552917085  0.6478257716922258  0.0557879711759384
  0.3521741563077683  0.9260884127082960  0.0557879711759384
  0.4260859404378792  0.5739140595621208  0.5557899446225107
  0.4260884157082927  0.8521741693077729  0.5557879601759339
  0.1478258286922269  0.5739115782917068  0.5557879601759339
  0.4260132916126480  0.5739867083873520  0.9450272838850324
  0.1479711900548253  0.5739842739845855  0.9450292447124866
  0.4260157200154140  0.8520288079451745  0.9450292447124866
  0.0739866823873498  0.9260132826126508  0.4450272838850324
  0.3520287949451699  0.9260157170154173  0.4450292447124866
  0.0739842509845872  0.6479711330548241  0.4450292447124866
  0.5739140355621188  0.4260859344378787  0.0557899556225152
  0.5739115812917035  0.1478258246922266  0.0557879711759384
  0.8521742003077719  0.4260884157082927  0.0557879711759384
  0.9260860064378775  0.0739140625621175  0.5557899446225107
  0.9260884597082963  0.3521741723077696  0.5557879601759339
  0.6478257976922279  0.0739115812917035  0.5557879601759339
  0.9260133576126464  0.0739867113873487  0.9450272838850324
  0.6479711590548334  0.0739842769845822  0.9450292447124866
  0.9260157640154176  0.3520288109451712  0.9450292447124866
  0.5739866843873500  0.4260132856126475  0.4450272838850324
  0.8520288389451736  0.4260157200154140  0.4450292447124866
  0.5739842769845822  0.1479711860548250  0.4450292447124866
  0.5739140335621187  0.9260859314378820  0.0557899556225152
  0.5739115552917085  0.6478257716922258  0.0557879711759384
  0.8521741563077683  0.9260884127082960  0.0557879711759384
  0.9260859614378774  0.5739140595621208  0.5557899446225107
  0.9260884587082927  0.8521741693077729  0.5557879601759339
  0.6478257966922314  0.5739115782917068  0.5557879601759339
  0.9260133126126462  0.5739867083873520  0.9450272838850324
  0.6479711580548297  0.5739842739845855  0.9450292447124866
  0.9260157630154140  0.8520288079451745  0.9450292447124866
  0.5739866823873498  0.9260132826126508  0.4450272838850324
  0.8520287949451699  0.9260157170154173  0.4450292447124866
  0.5739842509845872  0.6479711330548241  0.4450292447124866
  0.2533790385978421  0.2466209574021576  0.1511661217716238
  0.2533835373897944  0.0067629060565153  0.1511756961969510
  0.4932371119434862  0.2466164586102053  0.1511756961969510
  0.2466209604021543  0.2533790395978457  0.6511660887716246
  0.2466164586102053  0.4932370859434911  0.6511756631969519
  0.0067629080565155  0.2533835383897980  0.6511756631969519
  0.2468763699513872  0.2531236300486128  0.8491192803339800
  0.0062519006010859  0.2531280752146401  0.8491097649346386
  0.2468719217853632  0.4937480933989207  0.8491097649346386
  0.2531236290486092  0.2468763669513905  0.3491192363339835
  0.4937481193989157  0.2468719217853632  0.3491097209346421
  0.2531280742146365  0.0062518986010858  0.3491097209346421
  0.2533790155978437  0.7466209544021538  0.1511661217716238
  0.2533835383897980  0.5067629080565155  0.1511756961969510
  0.4932370669434860  0.7466164556102015  0.1511756961969510
  0.2466209804021560  0.7533790365978419  0.6511660887716246
  0.2466164326102032  0.9932370329434903  0.6511756631969519
  0.0067629280565100  0.7533835353897942  0.6511756631969519
  0.2468763899513888  0.7531236270486090  0.8491192803339800
  0.0062519206010805  0.7531280722146363  0.8491097649346386
  0.2468718957853611  0.9937480403989198  0.8491097649346386
  0.2531236060486108  0.7468763639513867  0.3491192363339835
  0.4937480743989155  0.7468719187853594  0.3491097209346421
  0.2531280752146401  0.5062519006010859  0.3491097209346421
  0.7533790165978473  0.2466209574021576  0.1511661217716238
  0.7533834943897944  0.0067629060565153  0.1511756961969510
  0.9932371119434862  0.2466164586102053  0.1511756961969510
  0.7466210244021596  0.2533790395978457  0.6511660887716246
  0.7466165016102053  0.4932370859434911  0.6511756631969519
  0.5067629300565102  0.2533835383897980  0.6511756631969519
  0.7468764339513925  0.2531236300486128  0.8491192803339800
  0.5062519226010807  0.2531280752146401  0.8491097649346386
  0.7468719647853632  0.4937480933989207  0.8491097649346386
  0.7531236070486145  0.2468763669513905  0.3491192363339835
  0.9937481193989157  0.2468719217853632  0.3491097209346421
  0.7531280312146365  0.0062518986010858  0.3491097209346421
  0.7533789725978437  0.7466209544021538  0.1511661217716238
  0.7533834953897980  0.5067629080565155  0.1511756961969510
  0.9932370669434860  0.7466164556102015  0.1511756961969510
  0.7466210234021560  0.7533790365978419  0.6511660887716246
  0.7466164746102066  0.9932370329434903  0.6511756631969519
  0.5067629280565100  0.7533835353897942  0.6511756631969519
  0.7468764329513888  0.7531236270486090  0.8491192803339800
  0.5062519206010805  0.7531280722146363  0.8491097649346386
  0.7468719377853645  0.9937480403989198  0.8491097649346386
  0.7531235630486108  0.7468763639513867  0.3491192363339835
  0.9937480743989155  0.7468719187853594  0.3491097209346421
  0.7531280322146401  0.5062519006010859  0.3491097209346421
  0.3333301701635918  0.1666698178364143  0.8132645090729298
  0.1666698238364077  0.3333301911635900  0.3132645090729298
  0.1666697965982067  0.3333302184017910  0.1870015975712604
  0.3333301974017928  0.1666697905982133  0.6870015755712586
  0.3333301751635886  0.6666698268364115  0.8132645090729298
  0.1666698418364092  0.8333301631635877  0.3132645090729298
  0.1666698145982082  0.8333301904017887  0.1870015975712604
  0.3333302024017897  0.6666697995982105  0.6870015755712586
  0.8333300851635883  0.1666698178364143  0.8132645090729298
  0.6666698338364085  0.3333301911635900  0.3132645090729298
  0.6666698065982075  0.3333302184017910  0.1870015975712604
  0.8333301124017893  0.1666697905982133  0.6870015755712586
  0.8333301321635886  0.6666698268364115  0.8132645090729298
  0.6666698628364145  0.8333301631635877  0.3132645090729298
  0.6666698355982135  0.8333301904017887  0.1870015975712604
  0.8333301594017897  0.6666697995982105  0.6870015755712586
 
  0.00000000E+00  0.00000000E+00  0.00000000E+00
  0.00000000E+00  0.00000000E+00  0.00000000E+00
  0.00000000E+00  0.00000000E+00  0.00000000E+00
  0.00000000E+00  0.00000000E+00  0.00000000E+00
  0.00000000E+00  0.00000000E+00  0.00000000E+00
  0.00000000E+00  0.00000000E+00  0.00000000E+00
  0.00000000E+00  0.00000000E+00  0.00000000E+00
  0.00000000E+00  0.00000000E+00  0.00000000E+00
  0.00000000E+00  0.00000000E+00  0.00000000E+00
  0.00000000E+00  0.00000000E+00  0.00000000E+00
  0.00000000E+00  0.00000000E+00  0.00000000E+00
  0.00000000E+00  0.00000000E+00  0.00000000E+00
  0.00000000E+00  0.00000000E+00  0.00000000E+00
  0.00000000E+00  0.00000000E+00  0.00000000E+00
  0.00000000E+00  0.00000000E+00  0.00000000E+00
  0.00000000E+00  0.00000000E+00  0.00000000E+00
  0.00000000E+00  0.00000000E+00  0.00000000E+00
  0.00000000E+00  0.00000000E+00  0.00000000E+00
  0.00000000E+00  0.00000000E+00  0.00000000E+00
  0.00000000E+00  0.00000000E+00  0.00000000E+00
  0.00000000E+00  0.00000000E+00  0.00000000E+00
  0.00000000E+00  0.00000000E+00  0.00000000E+00
  0.00000000E+00  0.00000000E+00  0.00000000E+00
  0.00000000E+00  0.00000000E+00  0.00000000E+00
  0.00000000E+00  0.00000000E+00  0.00000000E+00
  0.00000000E+00  0.00000000E+00  0.00000000E+00
  0.00000000E+00  0.00000000E+00  0.00000000E+00
  0.00000000E+00  0.00000000E+00  0.00000000E+00
  0.00000000E+00  0.00000000E+00  0.00000000E+00
  0.00000000E+00  0.00000000E+00  0.00000000E+00
  0.00000000E+00  0.00000000E+00  0.00000000E+00
  0.00000000E+00  0.00000000E+00  0.00000000E+00
  0.00000000E+00  0.00000000E+00  0.00000000E+00
  0.00000000E+00  0.00000000E+00  0.00000000E+00
  0.00000000E+00  0.00000000E+00  0.00000000E+00
  0.00000000E+00  0.00000000E+00  0.00000000E+00
  0.00000000E+00  0.00000000E+00  0.00000000E+00
  0.00000000E+00  0.00000000E+00  0.00000000E+00
  0.00000000E+00  0.00000000E+00  0.00000000E+00
  0.00000000E+00  0.00000000E+00  0.00000000E+00
  0.00000000E+00  0.00000000E+00  0.00000000E+00
  0.00000000E+00  0.00000000E+00  0.00000000E+00
  0.00000000E+00  0.00000000E+00  0.00000000E+00
  0.00000000E+00  0.00000000E+00  0.00000000E+00
  0.00000000E+00  0.00000000E+00  0.00000000E+00
  0.00000000E+00  0.00000000E+00  0.00000000E+00
  0.00000000E+00  0.00000000E+00  0.00000000E+00
  0.00000000E+00  0.00000000E+00  0.00000000E+00
  0.00000000E+00  0.00000000E+00  0.00000000E+00
  0.00000000E+00  0.00000000E+00  0.00000000E+00
  0.00000000E+00  0.00000000E+00  0.00000000E+00
  0.00000000E+00  0.00000000E+00  0.00000000E+00
  0.00000000E+00  0.00000000E+00  0.00000000E+00
  0.00000000E+00  0.00000000E+00  0.00000000E+00
  0.00000000E+00  0.00000000E+00  0.00000000E+00
  0.00000000E+00  0.00000000E+00  0.00000000E+00
  0.00000000E+00  0.00000000E+00  0.00000000E+00
  0.00000000E+00  0.00000000E+00  0.00000000E+00
  0.00000000E+00  0.00000000E+00  0.00000000E+00
  0.00000000E+00  0.00000000E+00  0.00000000E+00
  0.00000000E+00  0.00000000E+00  0.00000000E+00
  0.00000000E+00  0.00000000E+00  0.00000000E+00
  0.00000000E+00  0.00000000E+00  0.00000000E+00
  0.00000000E+00  0.00000000E+00  0.00000000E+00
  0.00000000E+00  0.00000000E+00  0.00000000E+00
  0.00000000E+00  0.00000000E+00  0.00000000E+00
  0.00000000E+00  0.00000000E+00  0.00000000E+00
  0.00000000E+00  0.00000000E+00  0.00000000E+00
  0.00000000E+00  0.00000000E+00  0.00000000E+00
  0.00000000E+00  0.00000000E+00  0.00000000E+00
  0.00000000E+00  0.00000000E+00  0.00000000E+00
  0.00000000E+00  0.00000000E+00  0.00000000E+00
  0.00000000E+00  0.00000000E+00  0.00000000E+00
  0.00000000E+00  0.00000000E+00  0.00000000E+00
  0.00000000E+00  0.00000000E+00  0.00000000E+00
  0.00000000E+00  0.00000000E+00  0.00000000E+00
  0.00000000E+00  0.00000000E+00  0.00000000E+00
  0.00000000E+00  0.00000000E+00  0.00000000E+00
  0.00000000E+00  0.00000000E+00  0.00000000E+00
  0.00000000E+00  0.00000000E+00  0.00000000E+00
  0.00000000E+00  0.00000000E+00  0.00000000E+00
  0.00000000E+00  0.00000000E+00  0.00000000E+00
  0.00000000E+00  0.00000000E+00  0.00000000E+00
  0.00000000E+00  0.00000000E+00  0.00000000E+00
  0.00000000E+00  0.00000000E+00  0.00000000E+00
  0.00000000E+00  0.00000000E+00  0.00000000E+00
  0.00000000E+00  0.00000000E+00  0.00000000E+00
  0.00000000E+00  0.00000000E+00  0.00000000E+00
  0.00000000E+00  0.00000000E+00  0.00000000E+00
  0.00000000E+00  0.00000000E+00  0.00000000E+00
  0.00000000E+00  0.00000000E+00  0.00000000E+00
  0.00000000E+00  0.00000000E+00  0.00000000E+00
  0.00000000E+00  0.00000000E+00  0.00000000E+00
  0.00000000E+00  0.00000000E+00  0.00000000E+00
  0.00000000E+00  0.00000000E+00  0.00000000E+00
  0.00000000E+00  0.00000000E+00  0.00000000E+00
  0.00000000E+00  0.00000000E+00  0.00000000E+00
  0.00000000E+00  0.00000000E+00  0.00000000E+00
  0.00000000E+00  0.00000000E+00  0.00000000E+00
  0.00000000E+00  0.00000000E+00  0.00000000E+00
  0.00000000E+00  0.00000000E+00  0.00000000E+00
  0.00000000E+00  0.00000000E+00  0.00000000E+00
  0.00000000E+00  0.00000000E+00  0.00000000E+00
  0.00000000E+00  0.00000000E+00  0.00000000E+00
  0.00000000E+00  0.00000000E+00  0.00000000E+00
  0.00000000E+00  0.00000000E+00  0.00000000E+00
  0.00000000E+00  0.00000000E+00  0.00000000E+00
  0.00000000E+00  0.00000000E+00  0.00000000E+00
  0.00000000E+00  0.00000000E+00  0.00000000E+00
  0.00000000E+00  0.00000000E+00  0.00000000E+00
  0.00000000E+00  0.00000000E+00  0.00000000E+00
  0.00000000E+00  0.00000000E+00  0.00000000E+00
  0.00000000E+00  0.00000000E+00  0.00000000E+00
  0.00000000E+00  0.00000000E+00  0.00000000E+00
  0.00000000E+00  0.00000000E+00  0.00000000E+00
  0.00000000E+00  0.00000000E+00  0.00000000E+00
  0.00000000E+00  0.00000000E+00  0.00000000E+00
  0.00000000E+00  0.00000000E+00  0.00000000E+00
  0.00000000E+00  0.00000000E+00  0.00000000E+00
  0.00000000E+00  0.00000000E+00  0.00000000E+00
  0.00000000E+00  0.00000000E+00  0.00000000E+00
  0.00000000E+00  0.00000000E+00  0.00000000E+00
  0.00000000E+00  0.00000000E+00  0.00000000E+00
  0.00000000E+00  0.00000000E+00  0.00000000E+00
  0.00000000E+00  0.00000000E+00  0.00000000E+00
  0.00000000E+00  0.00000000E+00  0.00000000E+00
  0.00000000E+00  0.00000000E+00  0.00000000E+00
  0.00000000E+00  0.00000000E+00  0.00000000E+00
  0.00000000E+00  0.00000000E+00  0.00000000E+00
  0.00000000E+00  0.00000000E+00  0.00000000E+00
  0.00000000E+00  0.00000000E+00  0.00000000E+00
  0.00000000E+00  0.00000000E+00  0.00000000E+00
  0.00000000E+00  0.00000000E+00  0.00000000E+00
  0.00000000E+00  0.00000000E+00  0.00000000E+00
  0.00000000E+00  0.00000000E+00  0.00000000E+00
  0.00000000E+00  0.00000000E+00  0.00000000E+00
  0.00000000E+00  0.00000000E+00  0.00000000E+00
  0.00000000E+00  0.00000000E+00  0.00000000E+00
  0.00000000E+00  0.00000000E+00  0.00000000E+00
  0.00000000E+00  0.00000000E+00  0.00000000E+00
  0.00000000E+00  0.00000000E+00  0.00000000E+00
  0.00000000E+00  0.00000000E+00  0.00000000E+00
  0.00000000E+00  0.00000000E+00  0.00000000E+00
  0.00000000E+00  0.00000000E+00  0.00000000E+00
  0.00000000E+00  0.00000000E+00  0.00000000E+00
  0.00000000E+00  0.00000000E+00  0.00000000E+00
  0.00000000E+00  0.00000000E+00  0.00000000E+00
  0.00000000E+00  0.00000000E+00  0.00000000E+00
  0.00000000E+00  0.00000000E+00  0.00000000E+00
  0.00000000E+00  0.00000000E+00  0.00000000E+00
  0.00000000E+00  0.00000000E+00  0.00000000E+00
  0.00000000E+00  0.00000000E+00  0.00000000E+00
  0.00000000E+00  0.00000000E+00  0.00000000E+00
  0.00000000E+00  0.00000000E+00  0.00000000E+00
  0.00000000E+00  0.00000000E+00  0.00000000E+00
  0.00000000E+00  0.00000000E+00  0.00000000E+00
  0.00000000E+00  0.00000000E+00  0.00000000E+00
  0.00000000E+00  0.00000000E+00  0.00000000E+00
  0.00000000E+00  0.00000000E+00  0.00000000E+00
  0.00000000E+00  0.00000000E+00  0.00000000E+00
  0.00000000E+00  0.00000000E+00  0.00000000E+00
  0.00000000E+00  0.00000000E+00  0.00000000E+00
  0.00000000E+00  0.00000000E+00  0.00000000E+00
  0.00000000E+00  0.00000000E+00  0.00000000E+00
  0.00000000E+00  0.00000000E+00  0.00000000E+00
  0.00000000E+00  0.00000000E+00  0.00000000E+00
  0.00000000E+00  0.00000000E+00  0.00000000E+00
  0.00000000E+00  0.00000000E+00  0.00000000E+00
  0.00000000E+00  0.00000000E+00  0.00000000E+00
  0.00000000E+00  0.00000000E+00  0.00000000E+00
  0.00000000E+00  0.00000000E+00  0.00000000E+00
  0.00000000E+00  0.00000000E+00  0.00000000E+00
  0.00000000E+00  0.00000000E+00  0.00000000E+00
  0.00000000E+00  0.00000000E+00  0.00000000E+00
  0.00000000E+00  0.00000000E+00  0.00000000E+00
  0.00000000E+00  0.00000000E+00  0.00000000E+00
  0.00000000E+00  0.00000000E+00  0.00000000E+00
  0.00000000E+00  0.00000000E+00  0.00000000E+00
  0.00000000E+00  0.00000000E+00  0.00000000E+00
  0.00000000E+00  0.00000000E+00  0.00000000E+00
  0.00000000E+00  0.00000000E+00  0.00000000E+00
  0.00000000E+00  0.00000000E+00  0.00000000E+00
  0.00000000E+00  0.00000000E+00  0.00000000E+00
  0.00000000E+00  0.00000000E+00  0.00000000E+00
  0.00000000E+00  0.00000000E+00  0.00000000E+00
  0.00000000E+00  0.00000000E+00  0.00000000E+00
  0.00000000E+00  0.00000000E+00  0.00000000E+00
  0.00000000E+00  0.00000000E+00  0.00000000E+00
  0.00000000E+00  0.00000000E+00  0.00000000E+00
  0.00000000E+00  0.00000000E+00  0.00000000E+00
  0.00000000E+00  0.00000000E+00  0.00000000E+00
  0.00000000E+00  0.00000000E+00  0.00000000E+00
  0.00000000E+00  0.00000000E+00  0.00000000E+00
  0.00000000E+00  0.00000000E+00  0.00000000E+00
  0.00000000E+00  0.00000000E+00  0.00000000E+00
  0.00000000E+00  0.00000000E+00  0.00000000E+00
  0.00000000E+00  0.00000000E+00  0.00000000E+00
  0.00000000E+00  0.00000000E+00  0.00000000E+00
  0.00000000E+00  0.00000000E+00  0.00000000E+00
  0.00000000E+00  0.00000000E+00  0.00000000E+00
  0.00000000E+00  0.00000000E+00  0.00000000E+00
  0.00000000E+00  0.00000000E+00  0.00000000E+00
  0.00000000E+00  0.00000000E+00  0.00000000E+00
  0.00000000E+00  0.00000000E+00  0.00000000E+00
  0.00000000E+00  0.00000000E+00  0.00000000E+00
  0.00000000E+00  0.00000000E+00  0.00000000E+00
  0.00000000E+00  0.00000000E+00  0.00000000E+00
  0.00000000E+00  0.00000000E+00  0.00000000E+00
  0.00000000E+00  0.00000000E+00  0.00000000E+00
  0.00000000E+00  0.00000000E+00  0.00000000E+00
  0.00000000E+00  0.00000000E+00  0.00000000E+00
  0.00000000E+00  0.00000000E+00  0.00000000E+00
  0.00000000E+00  0.00000000E+00  0.00000000E+00
  0.00000000E+00  0.00000000E+00  0.00000000E+00
  0.00000000E+00  0.00000000E+00  0.00000000E+00
  0.00000000E+00  0.00000000E+00  0.00000000E+00
  0.00000000E+00  0.00000000E+00  0.00000000E+00
  0.00000000E+00  0.00000000E+00  0.00000000E+00
  0.00000000E+00  0.00000000E+00  0.00000000E+00
  0.00000000E+00  0.00000000E+00  0.00000000E+00
  0.00000000E+00  0.00000000E+00  0.00000000E+00
  0.00000000E+00  0.00000000E+00  0.00000000E+00
  0.00000000E+00  0.00000000E+00  0.00000000E+00
  0.00000000E+00  0.00000000E+00  0.00000000E+00
  0.00000000E+00  0.00000000E+00  0.00000000E+00
  0.00000000E+00  0.00000000E+00  0.00000000E+00
  0.00000000E+00  0.00000000E+00  0.00000000E+00
  0.00000000E+00  0.00000000E+00  0.00000000E+00
  0.00000000E+00  0.00000000E+00  0.00000000E+00
  0.00000000E+00  0.00000000E+00  0.00000000E+00
  0.00000000E+00  0.00000000E+00  0.00000000E+00
  0.00000000E+00  0.00000000E+00  0.00000000E+00
  0.00000000E+00  0.00000000E+00  0.00000000E+00
  0.00000000E+00  0.00000000E+00  0.00000000E+00
  0.00000000E+00  0.00000000E+00  0.00000000E+00
  0.00000000E+00  0.00000000E+00  0.00000000E+00
  0.00000000E+00  0.00000000E+00  0.00000000E+00
  0.00000000E+00  0.00000000E+00  0.00000000E+00
  0.00000000E+00  0.00000000E+00  0.00000000E+00
  0.00000000E+00  0.00000000E+00  0.00000000E+00
  0.00000000E+00  0.00000000E+00  0.00000000E+00
  0.00000000E+00  0.00000000E+00  0.00000000E+00
  0.00000000E+00  0.00000000E+00  0.00000000E+00
  0.00000000E+00  0.00000000E+00  0.00000000E+00
  0.00000000E+00  0.00000000E+00  0.00000000E+00
  0.00000000E+00  0.00000000E+00  0.00000000E+00
  0.00000000E+00  0.00000000E+00  0.00000000E+00
  0.00000000E+00  0.00000000E+00  0.00000000E+00
  0.00000000E+00  0.00000000E+00  0.00000000E+00
  0.00000000E+00  0.00000000E+00  0.00000000E+00
  0.00000000E+00  0.00000000E+00  0.00000000E+00
  0.00000000E+00  0.00000000E+00  0.00000000E+00
  0.00000000E+00  0.00000000E+00  0.00000000E+00
  0.00000000E+00  0.00000000E+00  0.00000000E+00
  0.00000000E+00  0.00000000E+00  0.00000000E+00
  0.00000000E+00  0.00000000E+00  0.00000000E+00
