supercell generated structure. e_col = 0
   1.00000000000000     
    11.4653102303067840    0.0000000000000000    0.0000000000000000
    -5.7326551151533920    9.9292499216802330    0.0000000000000000
     0.0000000000000000    0.0000000000000000   22.4199788724211828
   Al   Ca   Mg   O    Ti
    64     8    16   152    16
Direct
 -0.0000000048249466  0.0000000048249466  0.0001278492652861
  0.0000000048249466 -0.0000000048249466  0.5001278492652861
 -0.0000000068249470  0.5000000018249501  0.0001278492652861
  0.0000000028249465  0.4999999921750565  0.5001278492652861
  0.4999999951750534  0.0000000048249466  0.0001278492652861
  0.5000000048249468 -0.0000000048249466  0.5001278492652861
  0.4999999931750532  0.5000000018249501  0.0001278492652861
  0.5000000028249466  0.4999999921750565  0.5001278492652861
  0.0000055758612020 -0.0000055758612020  0.2466753404177714
 -0.0000055758612020  0.0000055758612020  0.7466753184177698
  0.0000055738612022  0.4999944211388009  0.2466753404177714
 -0.0000055778612021  0.5000055728612052  0.7466753184177698
  0.5000055758612019 -0.0000055758612020  0.2466753404177714
  0.4999944241387976  0.0000055758612020  0.7466753184177698
  0.5000055738612017  0.4999944211388009  0.2466753404177714
  0.4999944221387975  0.5000055728612052  0.7466753184177698
  0.4172372623773301  0.0827627076226674  0.1059820146035123
  0.4172379751413057  0.3344723321691770  0.1059803014301223
  0.1655276868308210  0.0827619928586916  0.1059803014301223
  0.0827627146226644  0.4172372893773288  0.6059820366035069
  0.0827619928586916  0.1655276898308248  0.6059803234301168
  0.3344723431691815  0.4172380041413046  0.6059803234301168
  0.0823891175610382  0.4176108864389551  0.8940840988718934
  0.3352195830345133  0.4176116164220640  0.8940857756981541
  0.0823883805779322  0.1647804499654930  0.8940857756981541
  0.4176108594389564  0.0823891105610411  0.3940840548718971
  0.1647804469654892  0.0823883805779322  0.3940857316981582
  0.4176115874220651  0.3352195720345088  0.3940857316981582
  0.4172372603773299  0.5827627046226708  0.1059820146035123
  0.4172380041413046  0.8344723041691742  0.1059803014301223
  0.1655276748308200  0.5827619898586950  0.1059803014301223
  0.0827627106226712  0.9172372363773350  0.6059820366035069
  0.0827619918586951  0.6655276868308215  0.6059803234301168
  0.3344723171691793  0.9172379511413108  0.6059803234301168
  0.0823891135610449  0.9176108334389614  0.8940840988718934
  0.3352195570345111  0.9176115634220702  0.8940857756981541
  0.0823883795779357  0.6647804469654892  0.8940857756981541
  0.4176108574389563  0.5823891075610443  0.3940840548718971
  0.1647804349654882  0.5823883775779356  0.3940857316981582
  0.4176116164220640  0.8352195440345065  0.3940857316981582
  0.9172372623773301  0.0827627076226674  0.1059820146035123
  0.9172379751413057  0.3344723321691770  0.1059803014301223
  0.6655276768308207  0.0827619928586916  0.1059803014301223
  0.5827627366226663  0.4172372893773288  0.6059820366035069
  0.5827619928586917  0.1655276898308248  0.6059803234301168
  0.8344722791691757  0.4172380041413046  0.6059803234301168
  0.5823891395610399  0.4176108864389551  0.8940840988718934
  0.8352195190345080  0.4176116164220640  0.8940857756981541
  0.5823883805779323  0.1647804499654930  0.8940857756981541
  0.9176108594389565  0.0823891105610411  0.3940840548718971
  0.6647804369654884  0.0823883805779322  0.3940857316981582
  0.9176115874220651  0.3352195720345088  0.3940857316981582
  0.9172372603773299  0.5827627046226708  0.1059820146035123
  0.9172380041413045  0.8344723041691742  0.1059803014301223
  0.6655276748308205  0.5827619898586950  0.1059803014301223
  0.5827627106226713  0.9172372363773350  0.6059820366035069
  0.5827620128586933  0.6655276868308215  0.6059803234301168
  0.8344722531691806  0.9172379511413108  0.6059803234301168
  0.5823891135610448  0.9176108334389614  0.8940840988718934
  0.8352194930345129  0.9176115634220702  0.8940857756981541
  0.5823884005779340  0.6647804469654892  0.8940857756981541
  0.9176108574389563  0.5823891075610443  0.3940840548718971
  0.6647804349654882  0.5823883775779356  0.3940857316981582
  0.9176116164220639  0.8352195440345065  0.3940857316981582
  0.3333319547644368  0.1666680332355693  0.2496417163694969
  0.1666680392355626  0.3333319757644350  0.7496417603694936
  0.3333319597644337  0.6666680422355666  0.2496417163694969
  0.1666680572355641  0.8333319477644325  0.7496417603694936
  0.8333318697644332  0.1666680332355693  0.2496417163694969
  0.6666680492355637  0.3333319757644350  0.7496417603694936
  0.8333319167644335  0.6666680422355666  0.2496417163694969
  0.6666680782355696  0.8333319477644325  0.7496417603694936
  0.1666675247494084  0.3333324902505894  0.0258821585026220
  0.3333324692505912  0.1666675187494150  0.5258821585026220
  0.3333324929387176  0.1666674950612883  0.9740929336445415
  0.1666675010612817  0.3333325139387158  0.4740929336445412
  0.1666675427494099  0.8333324622505869  0.0258821585026220
  0.3333324742505881  0.6666675277494123  0.5258821585026220
  0.3333324979387145  0.6666675040612856  0.9740929336445415
  0.1666675190612832  0.8333324859387136  0.4740929336445412
  0.6666675347494093  0.3333324902505894  0.0258821585026220
  0.8333323842505875  0.1666675187494150  0.5258821585026220
  0.8333324079387142  0.1666674950612883  0.9740929336445415
  0.6666675110612826  0.3333325139387158  0.4740929336445412
  0.6666675637494153  0.8333324622505869  0.0258821585026220
  0.8333324312505879  0.6666675277494123  0.5258821585026220
  0.8333324549387146  0.6666675040612856  0.9740929336445415
  0.6666675400612886  0.8333324859387136  0.4740929336445412
  0.0000019610184605 -0.0000019610184605  0.1540110741806837
 -0.0000019610184605  0.0000019610184605  0.6540110521806892
 -0.0000019557957090  0.0000019557957090  0.8476279205902684
  0.0000019557957090 -0.0000019557957090  0.3476278545902701
  0.0000019590184606  0.4999980359815426  0.1540110741806837
 -0.0000019630184608  0.5000019580184639  0.6540110521806892
 -0.0000019577957092  0.5000019527957119  0.8476279205902684
  0.0000019537957091  0.4999980412042941  0.3476278545902701
  0.5000019610184606 -0.0000019610184605  0.1540110741806837
  0.4999980389815393  0.0000019610184605  0.6540110521806892
  0.4999980442042908  0.0000019557957090  0.8476279205902684
  0.5000019557957086 -0.0000019557957090  0.3476278545902701
  0.5000019590184605  0.4999980359815426  0.1540110741806837
  0.4999980369815391  0.5000019580184639  0.6540110521806892
  0.4999980422042906  0.5000019527957119  0.8476279205902684
  0.5000019537957084  0.4999980412042941  0.3476278545902701
  0.1666634077685093  0.3333366072314886  0.9376147008805951
  0.3333365862314904  0.1666634017685159  0.4376147008805949
  0.3333366009433510  0.1666633870566553  0.0623871672613211
  0.1666633930566487  0.3333366219433492  0.5623871512613198
  0.1666634257685108  0.8333365792314860  0.9376147008805951
  0.3333365912314872  0.6666634107685132  0.4376147008805949
  0.3333366059433479  0.6666633960566520  0.0623871672613211
  0.1666634110566501  0.8333365939433471  0.5623871512613198
  0.6666634177685102  0.3333366072314886  0.9376147008805951
  0.8333365012314866  0.1666634017685159  0.4376147008805949
  0.8333365159433478  0.1666633870566553  0.0623871672613211
  0.6666634030566491  0.3333366219433492  0.5623871512613198
  0.6666634467685162  0.8333365792314860  0.9376147008805951
  0.8333365482314870  0.6666634107685132  0.4376147008805949
  0.8333365629433481  0.6666633960566520  0.0623871672613211
  0.6666634320566550  0.8333365939433471  0.5623871512613198
  0.0897697112472917  0.4102302727527071  0.2497756585074019
  0.0897844227099172  0.1795216255210127  0.2497756766753451
  0.3204783934789853  0.4102155632900817  0.2497756766753451
  0.4102302647527064  0.0897697002472943  0.7497755925074034
  0.4102155502900842  0.3204783834789845  0.7497756106753464
  0.1795216135210117  0.0897844097099197  0.7497756106753464
  0.0897696902472935  0.9102302937527124  0.2497756585074019
  0.0897843917099182  0.6795215855210094  0.2497756766753451
  0.3204783834789844  0.9102155842900868  0.2497756766753451
  0.4102302627527062  0.5897696972472904  0.7497755925074034
  0.4102155612900816  0.8204784054789863  0.7497756106753464
  0.1795216125210151  0.5897844067099161  0.7497756106753464
  0.5897697222472890  0.4102302727527071  0.2497756585074019
  0.5897844117099200  0.1795216255210127  0.2497756766753451
  0.8204784154789871  0.4102155632900817  0.2497756766753451
  0.9102303067527099  0.0897697002472943  0.7497755925074034
  0.9102155932900839  0.3204783834789844  0.7497756106753464
  0.6795216135210117  0.0897844097099197  0.7497756106753464
  0.5897696902472934  0.9102302937527124  0.2497756585074019
  0.5897843917099184  0.6795215855210094  0.2497756766753451
  0.8204783834789845  0.9102155842900868  0.2497756766753451
  0.9102303057527062  0.5897696972472904  0.7497755925074034
  0.9102156032900848  0.8204784054789863  0.7497756106753464
  0.6795216125210152  0.5897844067099161  0.7497756106753464
  0.0739140565621245  0.4260859344378784  0.0557899556225132
  0.0739115812917022  0.1478258246922297  0.0557879711759383
  0.3521741793077707  0.4260884157082939  0.0557879711759383
  0.4260859204378772  0.0739140625621179  0.5557899446225089
  0.4260884167082975  0.3521741723077665  0.5557879601759336
  0.1478258306922302  0.0739115812917022  0.5557879601759336
  0.4260132716126483  0.0739867113873467  0.9450272838850340
  0.1479711920548289  0.0739842769845827  0.9450292447124882
  0.4260157210154170  0.3520288109451677  0.9450292447124882
  0.0739867053873533  0.4260132856126495  0.4450272838850340
  0.3520288179451719  0.4260157200154133  0.4450292447124882
  0.0739842769845827  0.1479711860548285  0.4450292447124882
  0.0739140335621190  0.9260859314378816  0.0557899556225132
  0.0739115552917072  0.6478257716922289  0.0557879711759383
  0.3521741563077652  0.9260884127082973  0.0557879711759383
  0.4260859404378789  0.5739140595621212  0.5557899446225089
  0.4260884157082939  0.8521741693077698  0.5557879601759336
  0.1478258286922300  0.5739115782917055  0.5557879601759336
  0.4260132916126500  0.5739867083873500  0.9450272838850340
  0.1479711900548288  0.5739842739845858  0.9450292447124882
  0.4260157200154134  0.8520288079451710  0.9450292447124882
  0.0739866823873479  0.9260132826126528  0.4450272838850340
  0.3520287949451664  0.9260157170154170  0.4450292447124882
  0.0739842509845877  0.6479711330548277  0.4450292447124882
  0.5739140355621192  0.4260859344378784  0.0557899556225132
  0.5739115812917022  0.1478258246922297  0.0557879711759383
  0.8521742003077688  0.4260884157082939  0.0557879711759383
  0.9260860064378772  0.0739140625621179  0.5557899446225089
  0.9260884597082977  0.3521741723077665  0.5557879601759336
  0.6478257976922310  0.0739115812917022  0.5557879601759336
  0.9260133576126484  0.0739867113873467  0.9450272838850340
  0.6479711590548298  0.0739842769845827  0.9450292447124882
  0.9260157640154173  0.3520288109451677  0.9450292447124882
  0.5739866843873480  0.4260132856126495  0.4450272838850340
  0.8520288389451700  0.4260157200154133  0.4450292447124882
  0.5739842769845825  0.1479711860548284  0.4450292447124882
  0.5739140335621190  0.9260859314378816  0.0557899556225132
  0.5739115552917071  0.6478257716922289  0.0557879711759383
  0.8521741563077652  0.9260884127082973  0.0557879711759383
  0.9260859614378770  0.5739140595621212  0.5557899446225089
  0.9260884587082940  0.8521741693077698  0.5557879601759336
  0.6478257966922345  0.5739115782917055  0.5557879601759336
  0.9260133126126482  0.5739867083873500  0.9450272838850340
  0.6479711580548333  0.5739842739845858  0.9450292447124882
  0.9260157630154137  0.8520288079451710  0.9450292447124882
  0.5739866823873478  0.9260132826126528  0.4450272838850340
  0.8520287949451664  0.9260157170154170  0.4450292447124882
  0.5739842509845875  0.6479711330548277  0.4450292447124882
  0.2533790385978434  0.2466209574021562  0.1511661217716212
  0.2533835373897975  0.0067629060565128  0.1511756961969531
  0.4932371119434886  0.2466164586102025  0.1511756961969531
  0.2466209604021529  0.2533790395978470  0.6511660887716220
  0.2466164586102025  0.4932370859434936  0.6511756631969539
  0.0067629080565130  0.2533835383898011  0.6511756631969539
  0.2468763699513861  0.2531236300486140  0.8491192803339813
  0.0062519006010858  0.2531280752146409  0.8491097649346392
  0.2468719217853625  0.4937480933989207  0.8491097649346392
  0.2531236290486104  0.2468763669513894  0.3491192363339850
  0.4937481193989158  0.2468719217853625  0.3491097209346427
  0.2531280742146372  0.0062518986010856  0.3491097209346427
  0.2533790155978450  0.7466209544021523  0.1511661217716212
  0.2533835383898011  0.5067629080565126  0.1511756961969531
  0.4932370669434885  0.7466164556101985  0.1511756961969531
  0.2466209804021545  0.7533790365978434  0.6511660887716220
  0.2466164326102003  0.9932370329434932  0.6511756631969539
  0.0067629280565075  0.7533835353897972  0.6511756631969539
  0.2468763899513877  0.7531236270486104  0.8491192803339813
  0.0062519206010803  0.7531280722146372  0.8491097649346392
  0.2468718957853603  0.9937480403989201  0.8491097649346392
  0.2531236060486120  0.7468763639513853  0.3491192363339850
  0.4937480743989156  0.7468719187853585  0.3491097209346427
  0.2531280752146409  0.5062519006010857  0.3491097209346427
  0.7533790165978489  0.2466209574021562  0.1511661217716212
  0.7533834943897973  0.0067629060565128  0.1511756961969531
  0.9932371119434891  0.2466164586102025  0.1511756961969531
  0.7466210244021581  0.2533790395978470  0.6511660887716220
  0.7466165016102023  0.4932370859434936  0.6511756631969539
  0.5067629300565073  0.2533835383898011  0.6511756631969539
  0.7468764339513911  0.2531236300486140  0.8491192803339813
  0.5062519226010804  0.2531280752146409  0.8491097649346392
  0.7468719647853623  0.4937480933989207  0.8491097649346392
  0.7531236070486158  0.2468763669513894  0.3491192363339850
  0.9937481193989159  0.2468719217853625  0.3491097209346427
  0.7531280312146373  0.0062518986010856  0.3491097209346427
  0.7533789725978453  0.7466209544021523  0.1511661217716212
  0.7533834953898010  0.5067629080565126  0.1511756961969531
  0.9932370669434889  0.7466164556101985  0.1511756961969531
  0.7466210234021544  0.7533790365978434  0.6511660887716220
  0.7466164746102036  0.9932370329434932  0.6511756631969539
  0.5067629280565071  0.7533835353897972  0.6511756631969539
  0.7468764329513875  0.7531236270486104  0.8491192803339813
  0.5062519206010803  0.7531280722146372  0.8491097649346392
  0.7468719377853636  0.9937480403989201  0.8491097649346392
  0.7531235630486122  0.7468763639513853  0.3491192363339850
  0.9937480743989158  0.7468719187853585  0.3491097209346427
  0.7531280322146410  0.5062519006010857  0.3491097209346427
  0.3333301701635903  0.1666698178364157  0.8132645090729319
  0.1666698238364090  0.3333301911635885  0.3132645090729319
  0.1666697965982044  0.3333302184017933  0.1870015975712585
  0.3333301974017951  0.1666697905982110  0.6870015755712567
  0.3333301751635872  0.6666698268364127  0.8132645090729319
  0.1666698418364105  0.8333301631635864  0.3132645090729319
  0.1666698145982059  0.8333301904017908  0.1870015975712585
  0.3333302024017920  0.6666697995982084  0.6870015755712567
  0.8333300851635871  0.1666698178364157  0.8132645090729319
  0.6666698338364098  0.3333301911635885  0.3132645090729319
  0.6666698065982054  0.3333302184017933  0.1870015975712585
  0.8333301124017914  0.1666697905982110  0.6870015755712567
  0.8333301321635874  0.6666698268364127  0.8132645090729319
  0.6666698628364157  0.8333301631635864  0.3132645090729319
  0.6666698355982114  0.8333301904017908  0.1870015975712585
  0.8333301594017918  0.6666697995982084  0.6870015755712567
 
  0.00000000E+00  0.00000000E+00  0.00000000E+00
  0.00000000E+00  0.00000000E+00  0.00000000E+00
  0.00000000E+00  0.00000000E+00  0.00000000E+00
  0.00000000E+00  0.00000000E+00  0.00000000E+00
  0.00000000E+00  0.00000000E+00  0.00000000E+00
  0.00000000E+00  0.00000000E+00  0.00000000E+00
  0.00000000E+00  0.00000000E+00  0.00000000E+00
  0.00000000E+00  0.00000000E+00  0.00000000E+00
  0.00000000E+00  0.00000000E+00  0.00000000E+00
  0.00000000E+00  0.00000000E+00  0.00000000E+00
  0.00000000E+00  0.00000000E+00  0.00000000E+00
  0.00000000E+00  0.00000000E+00  0.00000000E+00
  0.00000000E+00  0.00000000E+00  0.00000000E+00
  0.00000000E+00  0.00000000E+00  0.00000000E+00
  0.00000000E+00  0.00000000E+00  0.00000000E+00
  0.00000000E+00  0.00000000E+00  0.00000000E+00
  0.00000000E+00  0.00000000E+00  0.00000000E+00
  0.00000000E+00  0.00000000E+00  0.00000000E+00
  0.00000000E+00  0.00000000E+00  0.00000000E+00
  0.00000000E+00  0.00000000E+00  0.00000000E+00
  0.00000000E+00  0.00000000E+00  0.00000000E+00
  0.00000000E+00  0.00000000E+00  0.00000000E+00
  0.00000000E+00  0.00000000E+00  0.00000000E+00
  0.00000000E+00  0.00000000E+00  0.00000000E+00
  0.00000000E+00  0.00000000E+00  0.00000000E+00
  0.00000000E+00  0.00000000E+00  0.00000000E+00
  0.00000000E+00  0.00000000E+00  0.00000000E+00
  0.00000000E+00  0.00000000E+00  0.00000000E+00
  0.00000000E+00  0.00000000E+00  0.00000000E+00
  0.00000000E+00  0.00000000E+00  0.00000000E+00
  0.00000000E+00  0.00000000E+00  0.00000000E+00
  0.00000000E+00  0.00000000E+00  0.00000000E+00
  0.00000000E+00  0.00000000E+00  0.00000000E+00
  0.00000000E+00  0.00000000E+00  0.00000000E+00
  0.00000000E+00  0.00000000E+00  0.00000000E+00
  0.00000000E+00  0.00000000E+00  0.00000000E+00
  0.00000000E+00  0.00000000E+00  0.00000000E+00
  0.00000000E+00  0.00000000E+00  0.00000000E+00
  0.00000000E+00  0.00000000E+00  0.00000000E+00
  0.00000000E+00  0.00000000E+00  0.00000000E+00
  0.00000000E+00  0.00000000E+00  0.00000000E+00
  0.00000000E+00  0.00000000E+00  0.00000000E+00
  0.00000000E+00  0.00000000E+00  0.00000000E+00
  0.00000000E+00  0.00000000E+00  0.00000000E+00
  0.00000000E+00  0.00000000E+00  0.00000000E+00
  0.00000000E+00  0.00000000E+00  0.00000000E+00
  0.00000000E+00  0.00000000E+00  0.00000000E+00
  0.00000000E+00  0.00000000E+00  0.00000000E+00
  0.00000000E+00  0.00000000E+00  0.00000000E+00
  0.00000000E+00  0.00000000E+00  0.00000000E+00
  0.00000000E+00  0.00000000E+00  0.00000000E+00
  0.00000000E+00  0.00000000E+00  0.00000000E+00
  0.00000000E+00  0.00000000E+00  0.00000000E+00
  0.00000000E+00  0.00000000E+00  0.00000000E+00
  0.00000000E+00  0.00000000E+00  0.00000000E+00
  0.00000000E+00  0.00000000E+00  0.00000000E+00
  0.00000000E+00  0.00000000E+00  0.00000000E+00
  0.00000000E+00  0.00000000E+00  0.00000000E+00
  0.00000000E+00  0.00000000E+00  0.00000000E+00
  0.00000000E+00  0.00000000E+00  0.00000000E+00
  0.00000000E+00  0.00000000E+00  0.00000000E+00
  0.00000000E+00  0.00000000E+00  0.00000000E+00
  0.00000000E+00  0.00000000E+00  0.00000000E+00
  0.00000000E+00  0.00000000E+00  0.00000000E+00
  0.00000000E+00  0.00000000E+00  0.00000000E+00
  0.00000000E+00  0.00000000E+00  0.00000000E+00
  0.00000000E+00  0.00000000E+00  0.00000000E+00
  0.00000000E+00  0.00000000E+00  0.00000000E+00
  0.00000000E+00  0.00000000E+00  0.00000000E+00
  0.00000000E+00  0.00000000E+00  0.00000000E+00
  0.00000000E+00  0.00000000E+00  0.00000000E+00
  0.00000000E+00  0.00000000E+00  0.00000000E+00
  0.00000000E+00  0.00000000E+00  0.00000000E+00
  0.00000000E+00  0.00000000E+00  0.00000000E+00
  0.00000000E+00  0.00000000E+00  0.00000000E+00
  0.00000000E+00  0.00000000E+00  0.00000000E+00
  0.00000000E+00  0.00000000E+00  0.00000000E+00
  0.00000000E+00  0.00000000E+00  0.00000000E+00
  0.00000000E+00  0.00000000E+00  0.00000000E+00
  0.00000000E+00  0.00000000E+00  0.00000000E+00
  0.00000000E+00  0.00000000E+00  0.00000000E+00
  0.00000000E+00  0.00000000E+00  0.00000000E+00
  0.00000000E+00  0.00000000E+00  0.00000000E+00
  0.00000000E+00  0.00000000E+00  0.00000000E+00
  0.00000000E+00  0.00000000E+00  0.00000000E+00
  0.00000000E+00  0.00000000E+00  0.00000000E+00
  0.00000000E+00  0.00000000E+00  0.00000000E+00
  0.00000000E+00  0.00000000E+00  0.00000000E+00
  0.00000000E+00  0.00000000E+00  0.00000000E+00
  0.00000000E+00  0.00000000E+00  0.00000000E+00
  0.00000000E+00  0.00000000E+00  0.00000000E+00
  0.00000000E+00  0.00000000E+00  0.00000000E+00
  0.00000000E+00  0.00000000E+00  0.00000000E+00
  0.00000000E+00  0.00000000E+00  0.00000000E+00
  0.00000000E+00  0.00000000E+00  0.00000000E+00
  0.00000000E+00  0.00000000E+00  0.00000000E+00
  0.00000000E+00  0.00000000E+00  0.00000000E+00
  0.00000000E+00  0.00000000E+00  0.00000000E+00
  0.00000000E+00  0.00000000E+00  0.00000000E+00
  0.00000000E+00  0.00000000E+00  0.00000000E+00
  0.00000000E+00  0.00000000E+00  0.00000000E+00
  0.00000000E+00  0.00000000E+00  0.00000000E+00
  0.00000000E+00  0.00000000E+00  0.00000000E+00
  0.00000000E+00  0.00000000E+00  0.00000000E+00
  0.00000000E+00  0.00000000E+00  0.00000000E+00
  0.00000000E+00  0.00000000E+00  0.00000000E+00
  0.00000000E+00  0.00000000E+00  0.00000000E+00
  0.00000000E+00  0.00000000E+00  0.00000000E+00
  0.00000000E+00  0.00000000E+00  0.00000000E+00
  0.00000000E+00  0.00000000E+00  0.00000000E+00
  0.00000000E+00  0.00000000E+00  0.00000000E+00
  0.00000000E+00  0.00000000E+00  0.00000000E+00
  0.00000000E+00  0.00000000E+00  0.00000000E+00
  0.00000000E+00  0.00000000E+00  0.00000000E+00
  0.00000000E+00  0.00000000E+00  0.00000000E+00
  0.00000000E+00  0.00000000E+00  0.00000000E+00
  0.00000000E+00  0.00000000E+00  0.00000000E+00
  0.00000000E+00  0.00000000E+00  0.00000000E+00
  0.00000000E+00  0.00000000E+00  0.00000000E+00
  0.00000000E+00  0.00000000E+00  0.00000000E+00
  0.00000000E+00  0.00000000E+00  0.00000000E+00
  0.00000000E+00  0.00000000E+00  0.00000000E+00
  0.00000000E+00  0.00000000E+00  0.00000000E+00
  0.00000000E+00  0.00000000E+00  0.00000000E+00
  0.00000000E+00  0.00000000E+00  0.00000000E+00
  0.00000000E+00  0.00000000E+00  0.00000000E+00
  0.00000000E+00  0.00000000E+00  0.00000000E+00
  0.00000000E+00  0.00000000E+00  0.00000000E+00
  0.00000000E+00  0.00000000E+00  0.00000000E+00
  0.00000000E+00  0.00000000E+00  0.00000000E+00
  0.00000000E+00  0.00000000E+00  0.00000000E+00
  0.00000000E+00  0.00000000E+00  0.00000000E+00
  0.00000000E+00  0.00000000E+00  0.00000000E+00
  0.00000000E+00  0.00000000E+00  0.00000000E+00
  0.00000000E+00  0.00000000E+00  0.00000000E+00
  0.00000000E+00  0.00000000E+00  0.00000000E+00
  0.00000000E+00  0.00000000E+00  0.00000000E+00
  0.00000000E+00  0.00000000E+00  0.00000000E+00
  0.00000000E+00  0.00000000E+00  0.00000000E+00
  0.00000000E+00  0.00000000E+00  0.00000000E+00
  0.00000000E+00  0.00000000E+00  0.00000000E+00
  0.00000000E+00  0.00000000E+00  0.00000000E+00
  0.00000000E+00  0.00000000E+00  0.00000000E+00
  0.00000000E+00  0.00000000E+00  0.00000000E+00
  0.00000000E+00  0.00000000E+00  0.00000000E+00
  0.00000000E+00  0.00000000E+00  0.00000000E+00
  0.00000000E+00  0.00000000E+00  0.00000000E+00
  0.00000000E+00  0.00000000E+00  0.00000000E+00
  0.00000000E+00  0.00000000E+00  0.00000000E+00
  0.00000000E+00  0.00000000E+00  0.00000000E+00
  0.00000000E+00  0.00000000E+00  0.00000000E+00
  0.00000000E+00  0.00000000E+00  0.00000000E+00
  0.00000000E+00  0.00000000E+00  0.00000000E+00
  0.00000000E+00  0.00000000E+00  0.00000000E+00
  0.00000000E+00  0.00000000E+00  0.00000000E+00
  0.00000000E+00  0.00000000E+00  0.00000000E+00
  0.00000000E+00  0.00000000E+00  0.00000000E+00
  0.00000000E+00  0.00000000E+00  0.00000000E+00
  0.00000000E+00  0.00000000E+00  0.00000000E+00
  0.00000000E+00  0.00000000E+00  0.00000000E+00
  0.00000000E+00  0.00000000E+00  0.00000000E+00
  0.00000000E+00  0.00000000E+00  0.00000000E+00
  0.00000000E+00  0.00000000E+00  0.00000000E+00
  0.00000000E+00  0.00000000E+00  0.00000000E+00
  0.00000000E+00  0.00000000E+00  0.00000000E+00
  0.00000000E+00  0.00000000E+00  0.00000000E+00
  0.00000000E+00  0.00000000E+00  0.00000000E+00
  0.00000000E+00  0.00000000E+00  0.00000000E+00
  0.00000000E+00  0.00000000E+00  0.00000000E+00
  0.00000000E+00  0.00000000E+00  0.00000000E+00
  0.00000000E+00  0.00000000E+00  0.00000000E+00
  0.00000000E+00  0.00000000E+00  0.00000000E+00
  0.00000000E+00  0.00000000E+00  0.00000000E+00
  0.00000000E+00  0.00000000E+00  0.00000000E+00
  0.00000000E+00  0.00000000E+00  0.00000000E+00
  0.00000000E+00  0.00000000E+00  0.00000000E+00
  0.00000000E+00  0.00000000E+00  0.00000000E+00
  0.00000000E+00  0.00000000E+00  0.00000000E+00
  0.00000000E+00  0.00000000E+00  0.00000000E+00
  0.00000000E+00  0.00000000E+00  0.00000000E+00
  0.00000000E+00  0.00000000E+00  0.00000000E+00
  0.00000000E+00  0.00000000E+00  0.00000000E+00
  0.00000000E+00  0.00000000E+00  0.00000000E+00
  0.00000000E+00  0.00000000E+00  0.00000000E+00
  0.00000000E+00  0.00000000E+00  0.00000000E+00
  0.00000000E+00  0.00000000E+00  0.00000000E+00
  0.00000000E+00  0.00000000E+00  0.00000000E+00
  0.00000000E+00  0.00000000E+00  0.00000000E+00
  0.00000000E+00  0.00000000E+00  0.00000000E+00
  0.00000000E+00  0.00000000E+00  0.00000000E+00
  0.00000000E+00  0.00000000E+00  0.00000000E+00
  0.00000000E+00  0.00000000E+00  0.00000000E+00
  0.00000000E+00  0.00000000E+00  0.00000000E+00
  0.00000000E+00  0.00000000E+00  0.00000000E+00
  0.00000000E+00  0.00000000E+00  0.00000000E+00
  0.00000000E+00  0.00000000E+00  0.00000000E+00
  0.00000000E+00  0.00000000E+00  0.00000000E+00
  0.00000000E+00  0.00000000E+00  0.00000000E+00
  0.00000000E+00  0.00000000E+00  0.00000000E+00
  0.00000000E+00  0.00000000E+00  0.00000000E+00
  0.00000000E+00  0.00000000E+00  0.00000000E+00
  0.00000000E+00  0.00000000E+00  0.00000000E+00
  0.00000000E+00  0.00000000E+00  0.00000000E+00
  0.00000000E+00  0.00000000E+00  0.00000000E+00
  0.00000000E+00  0.00000000E+00  0.00000000E+00
  0.00000000E+00  0.00000000E+00  0.00000000E+00
  0.00000000E+00  0.00000000E+00  0.00000000E+00
  0.00000000E+00  0.00000000E+00  0.00000000E+00
  0.00000000E+00  0.00000000E+00  0.00000000E+00
  0.00000000E+00  0.00000000E+00  0.00000000E+00
  0.00000000E+00  0.00000000E+00  0.00000000E+00
  0.00000000E+00  0.00000000E+00  0.00000000E+00
  0.00000000E+00  0.00000000E+00  0.00000000E+00
  0.00000000E+00  0.00000000E+00  0.00000000E+00
  0.00000000E+00  0.00000000E+00  0.00000000E+00
  0.00000000E+00  0.00000000E+00  0.00000000E+00
  0.00000000E+00  0.00000000E+00  0.00000000E+00
  0.00000000E+00  0.00000000E+00  0.00000000E+00
  0.00000000E+00  0.00000000E+00  0.00000000E+00
  0.00000000E+00  0.00000000E+00  0.00000000E+00
  0.00000000E+00  0.00000000E+00  0.00000000E+00
  0.00000000E+00  0.00000000E+00  0.00000000E+00
  0.00000000E+00  0.00000000E+00  0.00000000E+00
  0.00000000E+00  0.00000000E+00  0.00000000E+00
  0.00000000E+00  0.00000000E+00  0.00000000E+00
  0.00000000E+00  0.00000000E+00  0.00000000E+00
  0.00000000E+00  0.00000000E+00  0.00000000E+00
  0.00000000E+00  0.00000000E+00  0.00000000E+00
  0.00000000E+00  0.00000000E+00  0.00000000E+00
  0.00000000E+00  0.00000000E+00  0.00000000E+00
  0.00000000E+00  0.00000000E+00  0.00000000E+00
  0.00000000E+00  0.00000000E+00  0.00000000E+00
  0.00000000E+00  0.00000000E+00  0.00000000E+00
  0.00000000E+00  0.00000000E+00  0.00000000E+00
  0.00000000E+00  0.00000000E+00  0.00000000E+00
  0.00000000E+00  0.00000000E+00  0.00000000E+00
  0.00000000E+00  0.00000000E+00  0.00000000E+00
  0.00000000E+00  0.00000000E+00  0.00000000E+00
  0.00000000E+00  0.00000000E+00  0.00000000E+00
  0.00000000E+00  0.00000000E+00  0.00000000E+00
  0.00000000E+00  0.00000000E+00  0.00000000E+00
  0.00000000E+00  0.00000000E+00  0.00000000E+00
  0.00000000E+00  0.00000000E+00  0.00000000E+00
  0.00000000E+00  0.00000000E+00  0.00000000E+00
  0.00000000E+00  0.00000000E+00  0.00000000E+00
  0.00000000E+00  0.00000000E+00  0.00000000E+00
  0.00000000E+00  0.00000000E+00  0.00000000E+00
  0.00000000E+00  0.00000000E+00  0.00000000E+00
  0.00000000E+00  0.00000000E+00  0.00000000E+00
  0.00000000E+00  0.00000000E+00  0.00000000E+00
  0.00000000E+00  0.00000000E+00  0.00000000E+00
  0.00000000E+00  0.00000000E+00  0.00000000E+00
  0.00000000E+00  0.00000000E+00  0.00000000E+00
  0.00000000E+00  0.00000000E+00  0.00000000E+00
  0.00000000E+00  0.00000000E+00  0.00000000E+00
  0.00000000E+00  0.00000000E+00  0.00000000E+00
