SYSTEM = Ca2Al24O38
ISIF = 7
PREC = Accurate
ENCUT = 520
EDIFF = 1E-7
IBRION = 2
NSW = 200
ISMEAR = 0
SIGMA = 0.05
LWAVE  = .FALSE.
LCHARG = .FALSE.
LREAL  = .FALSE.
ISPIN = 2
LORBIT = 11
VOSKOWN = 1
NPAR = 10
