supercell generated structure. e_col = 0
   1.00000000000000     
    11.4461019455892608    0.0000000000000000    0.0000000000000000
    -5.7230509727946304    9.9126150591517916    0.0000000000000000
     0.0000000000000000    0.0000000000000000   22.3824178009026831
   Al   Ca   Mg   O    Ti
    64     8    16   152    16
Direct
  0.0000013457878998  0.9999986542121003  0.0003121806122654
  0.9999986542121003  0.0000013457878998  0.5003121806122657
  0.0000013487421233  0.4999986579051176  0.0003121859242758
  0.9999986472578765  0.5000013360948888  0.5003121859242761
  0.5000013390948855  0.9999986492578766  0.0003121859242758
  0.4999986609051143  0.0000013507421235  0.5003121859242761
  0.5000013402473361  0.4999986547526669  0.0003121896372098
  0.4999986557526634  0.5000013392473396  0.5003121896372100
  0.9999987475555282  0.0000012524444715  0.2388490015019674
  0.0000012524444715  0.9999987475555282  0.7388489795019659
  0.9999988464929198  0.5000013871710342  0.2388489906752146
  0.0000011495070796  0.4999986068289727  0.7388489686752131
  0.4999986098289694  0.0000011515070797  0.2388489906752146
  0.5000013901710308  0.9999988484929200  0.7388489686752131
  0.4999986767726112  0.5000013182273922  0.2388489830498262
  0.5000013192273888  0.4999986757726146  0.7388489610498248
  0.4167490965658091  0.0832508735214289  0.1051073311787254
  0.4167490901162154  0.3334942755120421  0.1051070238788667
  0.1665059254144014  0.0832509937046851  0.1051070103755563
  0.0832508805214259  0.4167491235658077  0.6051073531787199
  0.0832509937046851  0.1665059284144052  0.6051070323755509
  0.3334942865120466  0.4167491191162142  0.6051070458788613
  0.0818244591078059  0.4181755476805347  0.8949198266906782
  0.3363544479537131  0.4181751883673561  0.8949214049208321
  0.0818249143303698  0.1636457452418053  0.8949214183654517
  0.4181755206805360  0.0818244521078089  0.3949197826906745
  0.1636457422418015  0.0818249143303698  0.3949213743654552
  0.4181751593673572  0.3363544369537086  0.3949213609208355
  0.4167490511332305  0.5832509138667701  0.1051073704477081
  0.4167489759391529  0.8334940141439133  0.1051070532562135
  0.1665059648560815  0.5832510180608466  0.1051070532562135
  0.0832508799852290  0.9167490670147773  0.6051073223361061
  0.0832508662223333  0.6665057086871429  0.6051070176691068
  0.3334942953128573  0.9167490767776727  0.6051070176691068
  0.0818244583320495  0.9181754886679566  0.8949198536107479
  0.3363544511019574  0.9181751406174846  0.8949214300383259
  0.0818248023825215  0.6636455528980427  0.8949214300383259
  0.4181754812880894  0.5818244837119114  0.3949197490391787
  0.1636457737995979  0.5818249330119522  0.3949213360018247
  0.4181750609880472  0.8363542052003972  0.3949213360018247
  0.9167490930147724  0.0832508769852252  0.1051073003361116
  0.9167491007776676  0.3334943103128550  0.1051069956691122
  0.6665056986871420  0.0832508672223298  0.1051069956691122
  0.5832509458667656  0.4167490801332293  0.6051073924477026
  0.5832510210608433  0.1665059798560863  0.6051070752562081
  0.8334939891439148  0.4167489759391529  0.6051070752562081
  0.5818245157119070  0.4181755102880882  0.8949197930391752
  0.8363541802003986  0.4181750609880472  0.8949213800018212
  0.5818249360119488  0.1636457887996026  0.8949213800018212
  0.9181755146679517  0.0818244553320457  0.3949198096107513
  0.6636455428980419  0.0818248033825180  0.3949213860383294
  0.9181751646174795  0.3363544661019551  0.3949213860383294
  0.9167490944785686  0.5832508704341917  0.1051073311787254
  0.9167490032953112  0.8334940655855945  0.1051070103755563
  0.6665057314879548  0.5832508748837852  0.1051070238788667
  0.5832508764341922  0.9167490704785737  0.6051073531787199
  0.5832508978837836  0.6665057434879558  0.6051070458788613
  0.8334940145856009  0.9167489502953174  0.6051070323755509
  0.5818244523194654  0.9181754918921935  0.8949198266906782
  0.8363541977582010  0.9181750296696328  0.8949214183654517
  0.5818248286326416  0.6636455820462892  0.8949214049208321
  0.9181755158921884  0.5818244463194649  0.3949197826906745
  0.6636455700462882  0.5818248056326433  0.3949213609208355
  0.9181750826696266  0.8363542487581945  0.3949213743654552
  0.3333057140696144  0.1666943090108813  0.2594369951626248
  0.1666943150108746  0.3333057350696126  0.7594370391626214
  0.3333057341116447  0.6666942678883483  0.2594369922861062
  0.1666943536136738  0.8333056513863231  0.7594370429628313
  0.8333055733863237  0.1666943296136789  0.2594369989628347
  0.6666942748883453  0.3333057501116460  0.7594370362861028
  0.8333056409891217  0.6666942829303888  0.2594369951626248
  0.6666943189303918  0.8333056719891208  0.7594370391626214
  0.1666678411773533  0.3333322911243256  0.0259342703323293
  0.3333322701243274  0.1666678351773599  0.5259342703323294
  0.3333343984862590  0.1666657015747494  0.9740548005771827
  0.1666657075747428  0.3333344194862572  0.4740548005771825
  0.1666678101907622  0.8333321948092274  0.0259342864725847
  0.3333322174323256  0.6666677845676747  0.5259342458816018
  0.3333343483544563  0.6666656536455438  0.9740548330058487
  0.1666656785747369  0.8333343264252602  0.4740547790508000
  0.6666677915676718  0.3333322334323269  0.0259342458816017
  0.8333321168092280  0.1666677861907744  0.5259342864725848
  0.8333342484252608  0.1666656545747420  0.9740547790508003
  0.6666656606455408  0.3333343643544576  0.4740548330058484
  0.6666677628756790  0.8333321458226419  0.0259342703323293
  0.8333321148226429  0.6666677268756760  0.5259342703323294
  0.8333342484252537  0.6666655985137442  0.9740548005771827
  0.6666656345137472  0.8333342794252527  0.4740548005771825
  0.0000008473580878  0.9999991526419122  0.1533125773094861
  0.9999991526419122  0.0000008473580878  0.6533125553094914
  0.0000006356511627  0.9999993643488374  0.8502593841326864
  0.9999993643488374  0.0000006356511627  0.3502593181326950
  0.0000008103338374  0.4999990926024365  0.1533125552075498
  0.9999991856661622  0.5000009013975700  0.6533125332075551
  0.0000006733118462  0.4999994216989727  0.8502594052592394
  0.9999993226881536  0.5000005723010339  0.3502593392592409
  0.5000009043975667  0.9999991876661624  0.1533125552075498
  0.4999990956024332  0.0000008123338376  0.6533125332075551
  0.5000005753010306  0.9999993246881538  0.8502594052592394
  0.4999994246989694  0.0000006753118463  0.3502593392592409
  0.5000008805847501  0.4999991144152530  0.1533125401983719
  0.4999991154152495  0.5000008795847536  0.6533125181983772
  0.5000005992018550  0.4999993957981481  0.8502594197161479
  0.4999993967981446  0.5000005982018585  0.3502593537161494
  0.1666672398619836  0.3333327090486364  0.9375962929886280
  0.3333326880486382  0.1666672338619902  0.4375962929886280
  0.3333348668296239  0.1666650437473933  0.0619267608193427
  0.1666650497473867  0.3333348878296221  0.5619267448193416
  0.1666672601457902  0.8333327448542065  0.9375962601150912
  0.3333327099251051  0.6666672920748951  0.4375963435661825
  0.3333348927142765  0.6666651092857165  0.0619266964178950
  0.1666650721535063  0.8333349328464976  0.5619267869933285
  0.6666672990748921  0.3333327259251064  0.9375963435661826
  0.8333326668542071  0.1666672361457953  0.4375962601150912
  0.8333348548464983  0.1666650481535114  0.0619268029933297
  0.6666651162857136  0.3333349087142778  0.5619266804178938
  0.6666673449513680  0.8333327471380116  0.9375962929886280
  0.8333327161380126  0.6666673089513651  0.4375962929886280
  0.8333349062526167  0.6666651301703723  0.0619267608193427
  0.6666651661703753  0.8333349372526158  0.5619267448193416
  0.0893367377811466  0.4106631988433014  0.2495135410328750
  0.0893524418560211  0.1786721974432753  0.2495142376777960
  0.3213275627318110  0.4106474203880603  0.2495142467442289
  0.4106631908433008  0.0893367267811493  0.7495134750328768
  0.4106474073880628  0.3213275527318102  0.7495141807442235
  0.1786721854432743  0.0893524288560236  0.7495141716777906
  0.0893366533595747  0.9106633306404310  0.2495135344803991
  0.0893524437639420  0.6786722895059171  0.2495142416849444
  0.3213276794940766  0.9106475322360631  0.2495142416849444
  0.4106631479018140  0.5893368120981828  0.7495134806490492
  0.4106474284419911  0.8213276309638801  0.7495141791963701
  0.1786723870361216  0.5893525395580063  0.7495141791963701
  0.5893368370981813  0.4106631579018148  0.2495135466490474
  0.5893525445580102  0.1786724000361191  0.2495142451963755
  0.8213276409638809  0.4106474304419913  0.2495142451963755
  0.9106633436404286  0.0893366633595755  0.7495134684804009
  0.9106475412360603  0.3213276794940766  0.7495141756849389
  0.6786723175059194  0.0893524617639435  0.7495141756849389
  0.5893367641566991  0.9106632672188573  0.2495135410328750
  0.5893525346119396  0.6786724162681835  0.2495142467442289
  0.8213278115567221  0.9106475651439830  0.2495142376777960
  0.9106632792188512  0.5893367711566961  0.7495134750328768
  0.9106475841439811  0.8213278335567239  0.7495141716777906
  0.6786724432681893  0.5893525496119373  0.7495141807442235
  0.0738542503545162  0.4261456389213536  0.0556106586243284
  0.0738544127708265  0.1477047761424022  0.0556104205030901
  0.3522951303842300  0.4261454986982059  0.0556103927065801
  0.4261456249213524  0.0738542563545096  0.5556106476243237
  0.4261454996982096  0.3522951233842259  0.5556103817065756
  0.1477047821424027  0.0738544127708265  0.5556104095030856
  0.4257643719539611  0.0742355372978087  0.9460642076251043
  0.1484741099410670  0.0742350426471845  0.9460641348710157
  0.4257648802559586  0.3515257892165619  0.9460641576302680
  0.0742355312978153  0.4257643859539622  0.4460642076251042
  0.3515257962165660  0.4257648792559550  0.4460641576302679
  0.0742350426471845  0.1484741039410736  0.4460641348710156
  0.0738542797216880  0.9261456852783125  0.0556106667797461
  0.0738544090359013  0.6477047963847771  0.0556103954839993
  0.3522951316152169  0.9261455589641034  0.0556103954839993
  0.4261456859532289  0.5738543140467713  0.5556106492098642
  0.4261455371949708  0.8522951787287905  0.5556104044452932
  0.1477048192712093  0.5738544568050283  0.5556104044452932
  0.4257644201767983  0.5742355798232016  0.9460642038855464
  0.1484741452027024  0.5742350742284573  0.9460641365549167
  0.4257649197715423  0.8515258527972974  0.9460641365549167
  0.0742355466927398  0.9257644183072610  0.4460642034357514
  0.3515257961336315  0.9257649219942193  0.4460641560979683
  0.0742350460057850  0.6484741318663624  0.4460641560979683
  0.5738542900467694  0.4261456799532284  0.0556106602098690
  0.5738544598050250  0.1477048152712090  0.0556104154452977
  0.8522952097287895  0.4261455371949708  0.0556104154452977
  0.9261457602783081  0.0738543087216869  0.5556106557797413
  0.9261456059641038  0.3522951476152182  0.5556103844839948
  0.6477048223847792  0.0738544350358963  0.5556103844839948
  0.9257644933072565  0.0742355756927386  0.9460642034357515
  0.6484741578663716  0.0742350720057801  0.9460641560979683
  0.9257649689942197  0.3515258121336328  0.9460641560979683
  0.5742355558231996  0.4257644141767978  0.4460642038855462
  0.8515258837972964  0.4257649197715423  0.4460641365549167
  0.5742350772284540  0.1484741412027021  0.4460641365549167
  0.5738543290786440  0.9261457376454898  0.0556106586243284
  0.5738544723017949  0.6477048206157694  0.0556103927065801
  0.8522952048575927  0.9261455812291732  0.0556104205030901
  0.9261457676454852  0.5738543550786461  0.5556106476243237
  0.9261456272291699  0.8522952178575973  0.5556104095030856
  0.6477048456157750  0.5738544953017932  0.5556103817065756
  0.9257644867021863  0.5742356080460372  0.9460642076251043
  0.6484741797834389  0.5742351147440447  0.9460641576302680
  0.9257649973528116  0.8515258900589330  0.9460641348710157
  0.5742355820460351  0.9257644567021909  0.4460642076251042
  0.8515258770589283  0.9257649513528149  0.4460641348710156
  0.5742350917440463  0.6484741547834333  0.4460641576302679
  0.2529877973655495  0.2470120917277177  0.1501295963647606
  0.2529872578076251  0.0059698217342939  0.1501301219827237
  0.4940303033478233  0.2470127349619347  0.1501301506196067
  0.2470120947277143  0.2529877983655532  0.6501295633647611
  0.2470127349619347  0.4940302773478282  0.6501301176196077
  0.0059698237342940  0.2529872588076287  0.6501300889827246
  0.2467662631176795  0.2532336466977708  0.8489519948336011
  0.0064739910748911  0.2532350794479972  0.8489492498022654
  0.2467649114532901  0.4935260838881420  0.8489492233330919
  0.2532336456977672  0.2467662601176828  0.3489519508336045
  0.4935261098881371  0.2467649114532901  0.3489491793330955
  0.2532350784479935  0.0064739890748909  0.3489492058022690
  0.2529876980351852  0.7470122719648123  0.1501296480070350
  0.2529870956531681  0.5059694628739320  0.1501301959685900
  0.4940305121260695  0.7470128983468314  0.1501301959685900
  0.2470121065219493  0.7529879104780485  0.6501295377916175
  0.2470125652369078  0.9940299545652738  0.6501300587465733
  0.0059700064347266  0.7529874027630896  0.6501300587465733
  0.2467662862480269  0.7532337307519709  0.8489520129510126
  0.0064741415568860  0.7532351946028873  0.8489492692244963
  0.2467647733971103  0.9935258194431142  0.8489492692244963
  0.2532335713222961  0.7467663986777014  0.3489519116601826
  0.4935262661527348  0.7467650394669144  0.3489491496800368
  0.2532349545330850  0.5064737088472668  0.3489491496800368
  0.7529878904780539  0.2470120835219509  0.1501295707916170
  0.7529873617630898  0.0059699844347319  0.1501300917465723
  0.9940300335652696  0.2470125912369099  0.1501300917465723
  0.7470123419648181  0.2529877220351872  0.6501296150070356
  0.7470129443468352  0.4940305311260746  0.6501301629685909
  0.5059694848739267  0.2529870956531681  0.6501301629685909
  0.7467664686777072  0.2532335953222981  0.8489519556601792
  0.5064737308472615  0.2532349545330850  0.8489491936800332
  0.7467650854669182  0.4935262851527399  0.8489491936800332
  0.7532337107519763  0.2467662632480285  0.3489519689510160
  0.9935258984431101  0.2467647993971124  0.3489492252244999
  0.7532351536028875  0.0064741195568913  0.3489492252244999
  0.7529878382722835  0.7470121956344463  0.1501295963647606
  0.7529872190380686  0.5059697166521784  0.1501301506196067
  0.9940301512657075  0.7470127351923708  0.1501301219827237
  0.7470122646344485  0.7529879022722817  0.6501295633647611
  0.7470127541923759  0.9940301172657118  0.6501300889827246
  0.5059697366521729  0.7529872590380648  0.6501301176196077
  0.7467664163022308  0.7532337338823166  0.8489519948336011
  0.5064739301118593  0.7532350825467097  0.8489492233330919
  0.7467649335520073  0.9935259499251146  0.8489492498022654
  0.7532336698823184  0.7467663473022287  0.3489519508336045
  0.9935259839251103  0.7467649145520022  0.3489492058022690
  0.7532350425467135  0.5064739101118647  0.3489491793330955
  0.3333368591487208  0.1666638833776468  0.8122671181786792
  0.1666638893776402  0.3333368801487190  0.3122671181786795
  0.1666682562697534  0.3333326560993495  0.1863205123805178
  0.3333326350993513  0.1666682502697600  0.6863204903805157
  0.3333365543505856  0.6666634476494147  0.8122670954613916
  0.1666636955894014  0.8333363094105954  0.3122671331404500
  0.1666680201924837  0.8333319848075134  0.1863204948021595
  0.3333322686899490  0.6666677333100510  0.6863205167704424
  0.8333362314105961  0.1666636715894066  0.8122671331404426
  0.6666634546494117  0.3333365703505869  0.3122670954613919
  0.6666677403100481  0.3333322846899503  0.1863205387704445
  0.8333319068075140  0.1666679961924888  0.6863204728021574
  0.8333360666223562  0.6666631378512826  0.8122671181786792
  0.6666631738512856  0.8333360976223552  0.3122671181786795
  0.6666673979006548  0.8333317307302421  0.1863205123805178
  0.8333316997302431  0.6666673619006518  0.6863204903805157
 
  0.00000000E+00  0.00000000E+00  0.00000000E+00
  0.00000000E+00  0.00000000E+00  0.00000000E+00
  0.00000000E+00  0.00000000E+00  0.00000000E+00
  0.00000000E+00  0.00000000E+00  0.00000000E+00
  0.00000000E+00  0.00000000E+00  0.00000000E+00
  0.00000000E+00  0.00000000E+00  0.00000000E+00
  0.00000000E+00  0.00000000E+00  0.00000000E+00
  0.00000000E+00  0.00000000E+00  0.00000000E+00
  0.00000000E+00  0.00000000E+00  0.00000000E+00
  0.00000000E+00  0.00000000E+00  0.00000000E+00
  0.00000000E+00  0.00000000E+00  0.00000000E+00
  0.00000000E+00  0.00000000E+00  0.00000000E+00
  0.00000000E+00  0.00000000E+00  0.00000000E+00
  0.00000000E+00  0.00000000E+00  0.00000000E+00
  0.00000000E+00  0.00000000E+00  0.00000000E+00
  0.00000000E+00  0.00000000E+00  0.00000000E+00
  0.00000000E+00  0.00000000E+00  0.00000000E+00
  0.00000000E+00  0.00000000E+00  0.00000000E+00
  0.00000000E+00  0.00000000E+00  0.00000000E+00
  0.00000000E+00  0.00000000E+00  0.00000000E+00
  0.00000000E+00  0.00000000E+00  0.00000000E+00
  0.00000000E+00  0.00000000E+00  0.00000000E+00
  0.00000000E+00  0.00000000E+00  0.00000000E+00
  0.00000000E+00  0.00000000E+00  0.00000000E+00
  0.00000000E+00  0.00000000E+00  0.00000000E+00
  0.00000000E+00  0.00000000E+00  0.00000000E+00
  0.00000000E+00  0.00000000E+00  0.00000000E+00
  0.00000000E+00  0.00000000E+00  0.00000000E+00
  0.00000000E+00  0.00000000E+00  0.00000000E+00
  0.00000000E+00  0.00000000E+00  0.00000000E+00
  0.00000000E+00  0.00000000E+00  0.00000000E+00
  0.00000000E+00  0.00000000E+00  0.00000000E+00
  0.00000000E+00  0.00000000E+00  0.00000000E+00
  0.00000000E+00  0.00000000E+00  0.00000000E+00
  0.00000000E+00  0.00000000E+00  0.00000000E+00
  0.00000000E+00  0.00000000E+00  0.00000000E+00
  0.00000000E+00  0.00000000E+00  0.00000000E+00
  0.00000000E+00  0.00000000E+00  0.00000000E+00
  0.00000000E+00  0.00000000E+00  0.00000000E+00
  0.00000000E+00  0.00000000E+00  0.00000000E+00
  0.00000000E+00  0.00000000E+00  0.00000000E+00
  0.00000000E+00  0.00000000E+00  0.00000000E+00
  0.00000000E+00  0.00000000E+00  0.00000000E+00
  0.00000000E+00  0.00000000E+00  0.00000000E+00
  0.00000000E+00  0.00000000E+00  0.00000000E+00
  0.00000000E+00  0.00000000E+00  0.00000000E+00
  0.00000000E+00  0.00000000E+00  0.00000000E+00
  0.00000000E+00  0.00000000E+00  0.00000000E+00
  0.00000000E+00  0.00000000E+00  0.00000000E+00
  0.00000000E+00  0.00000000E+00  0.00000000E+00
  0.00000000E+00  0.00000000E+00  0.00000000E+00
  0.00000000E+00  0.00000000E+00  0.00000000E+00
  0.00000000E+00  0.00000000E+00  0.00000000E+00
  0.00000000E+00  0.00000000E+00  0.00000000E+00
  0.00000000E+00  0.00000000E+00  0.00000000E+00
  0.00000000E+00  0.00000000E+00  0.00000000E+00
  0.00000000E+00  0.00000000E+00  0.00000000E+00
  0.00000000E+00  0.00000000E+00  0.00000000E+00
  0.00000000E+00  0.00000000E+00  0.00000000E+00
  0.00000000E+00  0.00000000E+00  0.00000000E+00
  0.00000000E+00  0.00000000E+00  0.00000000E+00
  0.00000000E+00  0.00000000E+00  0.00000000E+00
  0.00000000E+00  0.00000000E+00  0.00000000E+00
  0.00000000E+00  0.00000000E+00  0.00000000E+00
  0.00000000E+00  0.00000000E+00  0.00000000E+00
  0.00000000E+00  0.00000000E+00  0.00000000E+00
  0.00000000E+00  0.00000000E+00  0.00000000E+00
  0.00000000E+00  0.00000000E+00  0.00000000E+00
  0.00000000E+00  0.00000000E+00  0.00000000E+00
  0.00000000E+00  0.00000000E+00  0.00000000E+00
  0.00000000E+00  0.00000000E+00  0.00000000E+00
  0.00000000E+00  0.00000000E+00  0.00000000E+00
  0.00000000E+00  0.00000000E+00  0.00000000E+00
  0.00000000E+00  0.00000000E+00  0.00000000E+00
  0.00000000E+00  0.00000000E+00  0.00000000E+00
  0.00000000E+00  0.00000000E+00  0.00000000E+00
  0.00000000E+00  0.00000000E+00  0.00000000E+00
  0.00000000E+00  0.00000000E+00  0.00000000E+00
  0.00000000E+00  0.00000000E+00  0.00000000E+00
  0.00000000E+00  0.00000000E+00  0.00000000E+00
  0.00000000E+00  0.00000000E+00  0.00000000E+00
  0.00000000E+00  0.00000000E+00  0.00000000E+00
  0.00000000E+00  0.00000000E+00  0.00000000E+00
  0.00000000E+00  0.00000000E+00  0.00000000E+00
  0.00000000E+00  0.00000000E+00  0.00000000E+00
  0.00000000E+00  0.00000000E+00  0.00000000E+00
  0.00000000E+00  0.00000000E+00  0.00000000E+00
  0.00000000E+00  0.00000000E+00  0.00000000E+00
  0.00000000E+00  0.00000000E+00  0.00000000E+00
  0.00000000E+00  0.00000000E+00  0.00000000E+00
  0.00000000E+00  0.00000000E+00  0.00000000E+00
  0.00000000E+00  0.00000000E+00  0.00000000E+00
  0.00000000E+00  0.00000000E+00  0.00000000E+00
  0.00000000E+00  0.00000000E+00  0.00000000E+00
  0.00000000E+00  0.00000000E+00  0.00000000E+00
  0.00000000E+00  0.00000000E+00  0.00000000E+00
  0.00000000E+00  0.00000000E+00  0.00000000E+00
  0.00000000E+00  0.00000000E+00  0.00000000E+00
  0.00000000E+00  0.00000000E+00  0.00000000E+00
  0.00000000E+00  0.00000000E+00  0.00000000E+00
  0.00000000E+00  0.00000000E+00  0.00000000E+00
  0.00000000E+00  0.00000000E+00  0.00000000E+00
  0.00000000E+00  0.00000000E+00  0.00000000E+00
  0.00000000E+00  0.00000000E+00  0.00000000E+00
  0.00000000E+00  0.00000000E+00  0.00000000E+00
  0.00000000E+00  0.00000000E+00  0.00000000E+00
  0.00000000E+00  0.00000000E+00  0.00000000E+00
  0.00000000E+00  0.00000000E+00  0.00000000E+00
  0.00000000E+00  0.00000000E+00  0.00000000E+00
  0.00000000E+00  0.00000000E+00  0.00000000E+00
  0.00000000E+00  0.00000000E+00  0.00000000E+00
  0.00000000E+00  0.00000000E+00  0.00000000E+00
  0.00000000E+00  0.00000000E+00  0.00000000E+00
  0.00000000E+00  0.00000000E+00  0.00000000E+00
  0.00000000E+00  0.00000000E+00  0.00000000E+00
  0.00000000E+00  0.00000000E+00  0.00000000E+00
  0.00000000E+00  0.00000000E+00  0.00000000E+00
  0.00000000E+00  0.00000000E+00  0.00000000E+00
  0.00000000E+00  0.00000000E+00  0.00000000E+00
  0.00000000E+00  0.00000000E+00  0.00000000E+00
  0.00000000E+00  0.00000000E+00  0.00000000E+00
  0.00000000E+00  0.00000000E+00  0.00000000E+00
  0.00000000E+00  0.00000000E+00  0.00000000E+00
  0.00000000E+00  0.00000000E+00  0.00000000E+00
  0.00000000E+00  0.00000000E+00  0.00000000E+00
  0.00000000E+00  0.00000000E+00  0.00000000E+00
  0.00000000E+00  0.00000000E+00  0.00000000E+00
  0.00000000E+00  0.00000000E+00  0.00000000E+00
  0.00000000E+00  0.00000000E+00  0.00000000E+00
  0.00000000E+00  0.00000000E+00  0.00000000E+00
  0.00000000E+00  0.00000000E+00  0.00000000E+00
  0.00000000E+00  0.00000000E+00  0.00000000E+00
  0.00000000E+00  0.00000000E+00  0.00000000E+00
  0.00000000E+00  0.00000000E+00  0.00000000E+00
  0.00000000E+00  0.00000000E+00  0.00000000E+00
  0.00000000E+00  0.00000000E+00  0.00000000E+00
  0.00000000E+00  0.00000000E+00  0.00000000E+00
  0.00000000E+00  0.00000000E+00  0.00000000E+00
  0.00000000E+00  0.00000000E+00  0.00000000E+00
  0.00000000E+00  0.00000000E+00  0.00000000E+00
  0.00000000E+00  0.00000000E+00  0.00000000E+00
  0.00000000E+00  0.00000000E+00  0.00000000E+00
  0.00000000E+00  0.00000000E+00  0.00000000E+00
  0.00000000E+00  0.00000000E+00  0.00000000E+00
  0.00000000E+00  0.00000000E+00  0.00000000E+00
  0.00000000E+00  0.00000000E+00  0.00000000E+00
  0.00000000E+00  0.00000000E+00  0.00000000E+00
  0.00000000E+00  0.00000000E+00  0.00000000E+00
  0.00000000E+00  0.00000000E+00  0.00000000E+00
  0.00000000E+00  0.00000000E+00  0.00000000E+00
  0.00000000E+00  0.00000000E+00  0.00000000E+00
  0.00000000E+00  0.00000000E+00  0.00000000E+00
  0.00000000E+00  0.00000000E+00  0.00000000E+00
  0.00000000E+00  0.00000000E+00  0.00000000E+00
  0.00000000E+00  0.00000000E+00  0.00000000E+00
  0.00000000E+00  0.00000000E+00  0.00000000E+00
  0.00000000E+00  0.00000000E+00  0.00000000E+00
  0.00000000E+00  0.00000000E+00  0.00000000E+00
  0.00000000E+00  0.00000000E+00  0.00000000E+00
  0.00000000E+00  0.00000000E+00  0.00000000E+00
  0.00000000E+00  0.00000000E+00  0.00000000E+00
  0.00000000E+00  0.00000000E+00  0.00000000E+00
  0.00000000E+00  0.00000000E+00  0.00000000E+00
  0.00000000E+00  0.00000000E+00  0.00000000E+00
  0.00000000E+00  0.00000000E+00  0.00000000E+00
  0.00000000E+00  0.00000000E+00  0.00000000E+00
  0.00000000E+00  0.00000000E+00  0.00000000E+00
  0.00000000E+00  0.00000000E+00  0.00000000E+00
  0.00000000E+00  0.00000000E+00  0.00000000E+00
  0.00000000E+00  0.00000000E+00  0.00000000E+00
  0.00000000E+00  0.00000000E+00  0.00000000E+00
  0.00000000E+00  0.00000000E+00  0.00000000E+00
  0.00000000E+00  0.00000000E+00  0.00000000E+00
  0.00000000E+00  0.00000000E+00  0.00000000E+00
  0.00000000E+00  0.00000000E+00  0.00000000E+00
  0.00000000E+00  0.00000000E+00  0.00000000E+00
  0.00000000E+00  0.00000000E+00  0.00000000E+00
  0.00000000E+00  0.00000000E+00  0.00000000E+00
  0.00000000E+00  0.00000000E+00  0.00000000E+00
  0.00000000E+00  0.00000000E+00  0.00000000E+00
  0.00000000E+00  0.00000000E+00  0.00000000E+00
  0.00000000E+00  0.00000000E+00  0.00000000E+00
  0.00000000E+00  0.00000000E+00  0.00000000E+00
  0.00000000E+00  0.00000000E+00  0.00000000E+00
  0.00000000E+00  0.00000000E+00  0.00000000E+00
  0.00000000E+00  0.00000000E+00  0.00000000E+00
  0.00000000E+00  0.00000000E+00  0.00000000E+00
  0.00000000E+00  0.00000000E+00  0.00000000E+00
  0.00000000E+00  0.00000000E+00  0.00000000E+00
  0.00000000E+00  0.00000000E+00  0.00000000E+00
  0.00000000E+00  0.00000000E+00  0.00000000E+00
  0.00000000E+00  0.00000000E+00  0.00000000E+00
  0.00000000E+00  0.00000000E+00  0.00000000E+00
  0.00000000E+00  0.00000000E+00  0.00000000E+00
  0.00000000E+00  0.00000000E+00  0.00000000E+00
  0.00000000E+00  0.00000000E+00  0.00000000E+00
  0.00000000E+00  0.00000000E+00  0.00000000E+00
  0.00000000E+00  0.00000000E+00  0.00000000E+00
  0.00000000E+00  0.00000000E+00  0.00000000E+00
  0.00000000E+00  0.00000000E+00  0.00000000E+00
  0.00000000E+00  0.00000000E+00  0.00000000E+00
  0.00000000E+00  0.00000000E+00  0.00000000E+00
  0.00000000E+00  0.00000000E+00  0.00000000E+00
  0.00000000E+00  0.00000000E+00  0.00000000E+00
  0.00000000E+00  0.00000000E+00  0.00000000E+00
  0.00000000E+00  0.00000000E+00  0.00000000E+00
  0.00000000E+00  0.00000000E+00  0.00000000E+00
  0.00000000E+00  0.00000000E+00  0.00000000E+00
  0.00000000E+00  0.00000000E+00  0.00000000E+00
  0.00000000E+00  0.00000000E+00  0.00000000E+00
  0.00000000E+00  0.00000000E+00  0.00000000E+00
  0.00000000E+00  0.00000000E+00  0.00000000E+00
  0.00000000E+00  0.00000000E+00  0.00000000E+00
  0.00000000E+00  0.00000000E+00  0.00000000E+00
  0.00000000E+00  0.00000000E+00  0.00000000E+00
  0.00000000E+00  0.00000000E+00  0.00000000E+00
  0.00000000E+00  0.00000000E+00  0.00000000E+00
  0.00000000E+00  0.00000000E+00  0.00000000E+00
  0.00000000E+00  0.00000000E+00  0.00000000E+00
  0.00000000E+00  0.00000000E+00  0.00000000E+00
  0.00000000E+00  0.00000000E+00  0.00000000E+00
  0.00000000E+00  0.00000000E+00  0.00000000E+00
  0.00000000E+00  0.00000000E+00  0.00000000E+00
  0.00000000E+00  0.00000000E+00  0.00000000E+00
  0.00000000E+00  0.00000000E+00  0.00000000E+00
  0.00000000E+00  0.00000000E+00  0.00000000E+00
  0.00000000E+00  0.00000000E+00  0.00000000E+00
  0.00000000E+00  0.00000000E+00  0.00000000E+00
  0.00000000E+00  0.00000000E+00  0.00000000E+00
  0.00000000E+00  0.00000000E+00  0.00000000E+00
  0.00000000E+00  0.00000000E+00  0.00000000E+00
  0.00000000E+00  0.00000000E+00  0.00000000E+00
  0.00000000E+00  0.00000000E+00  0.00000000E+00
  0.00000000E+00  0.00000000E+00  0.00000000E+00
  0.00000000E+00  0.00000000E+00  0.00000000E+00
  0.00000000E+00  0.00000000E+00  0.00000000E+00
  0.00000000E+00  0.00000000E+00  0.00000000E+00
  0.00000000E+00  0.00000000E+00  0.00000000E+00
  0.00000000E+00  0.00000000E+00  0.00000000E+00
  0.00000000E+00  0.00000000E+00  0.00000000E+00
  0.00000000E+00  0.00000000E+00  0.00000000E+00
  0.00000000E+00  0.00000000E+00  0.00000000E+00
  0.00000000E+00  0.00000000E+00  0.00000000E+00
  0.00000000E+00  0.00000000E+00  0.00000000E+00
  0.00000000E+00  0.00000000E+00  0.00000000E+00
  0.00000000E+00  0.00000000E+00  0.00000000E+00
  0.00000000E+00  0.00000000E+00  0.00000000E+00
  0.00000000E+00  0.00000000E+00  0.00000000E+00
  0.00000000E+00  0.00000000E+00  0.00000000E+00
  0.00000000E+00  0.00000000E+00  0.00000000E+00
  0.00000000E+00  0.00000000E+00  0.00000000E+00
  0.00000000E+00  0.00000000E+00  0.00000000E+00
  0.00000000E+00  0.00000000E+00  0.00000000E+00
  0.00000000E+00  0.00000000E+00  0.00000000E+00
  0.00000000E+00  0.00000000E+00  0.00000000E+00
  0.00000000E+00  0.00000000E+00  0.00000000E+00
