supercell generated structure. e_col = 0
   1.00000000000000     
    11.4574989423404912    0.0000000000000000    0.0000000000000000
    -5.7287494711702456    9.9224851478651708    0.0000000000000000
     0.0000000000000000    0.0000000000000000   22.4047041953603063
   Al   Ca   Mg   O    Ti
    64     8    16   152    16
Direct
  0.0000021123904688  0.9999978876095312  0.0003262846058618
  0.9999978876095312  0.0000021123904688  0.5003262846058689
  0.0000021153446923  0.4999978913025487  0.0003262899178722
  0.9999978806553074  0.5000021026974579  0.5003262899178722
  0.5000021056974546  0.9999978826553075  0.0003262899178722
  0.4999978943025454  0.0000021173446925  0.5003262899178722
  0.5000021068499052  0.4999978881500979  0.0003262936308062
  0.4999978891500945  0.5000021058499087  0.5003262936308133
  0.9999986099129359  0.0000013900870641  0.2385611940000416
  0.0000013900870641  0.9999986099129359  0.7385611720000398
  0.9999987088503275  0.5000015248136265  0.2385611831732888
  0.0000012871496722  0.4999984691863801  0.7385611611732870
  0.4999984721863768  0.0000012891496723  0.2385611831732888
  0.5000015278136232  0.9999987108503277  0.7385611611732870
  0.4999985391300186  0.5000014558699846  0.2385611755479005
  0.5000014568699811  0.4999985381300220  0.7385611535478986
  0.4167384533533820  0.0832615167338560  0.1050486240782362
  0.4167384846454212  0.3334703417138840  0.1050480579195749
  0.1665298592125595  0.0832615991754793  0.1050480444162645
  0.0832615237338530  0.4167384803533807  0.6050486460782309
  0.0832615991754793  0.1665298622125633  0.6050480664162592
  0.3334703527138885  0.4167385136454200  0.6050480799195697
  0.0817960218262570  0.4182039849620836  0.8949895788243722
  0.3364134345302858  0.4182034045789962  0.8949921058027854
  0.0817966981187297  0.1635867586652324  0.8949921192474051
  0.4182039579620849  0.0817960148262600  0.3949895348243686
  0.1635867556652286  0.0817966981187297  0.3949920752474156
  0.4182033755789973  0.3364134235302814  0.3949920618027960
  0.4167384079208034  0.5832615570791972  0.1050486633472190
  0.4167383704683587  0.8334700803457551  0.1050480872969217
  0.1665298986542396  0.5832616235316408  0.1050480872969217
  0.0832615231976561  0.9167384238023502  0.6050486152356171
  0.0832614716931275  0.6665296424853011  0.6050480517098151
  0.3334703615146992  0.9167384713068785  0.6050480517098151
  0.0817960210505007  0.9182039259495056  0.8949896057444420
  0.3364134376785302  0.9182033568291317  0.8949921309202864
  0.0817965861708814  0.6635865663214702  0.8949921309202864
  0.4182039185696382  0.5817960464303624  0.3949895011728728
  0.1635867872230250  0.5817967168003051  0.3949920368837851
  0.4182032771996873  0.8364131917769697  0.3949920368837851
  0.9167384498023452  0.0832615201976523  0.1050485932356224
  0.9167384953068733  0.3334703765146969  0.1050480297098204
  0.6665296324853003  0.0832614726931240  0.1050480297098204
  0.5832615890791928  0.4167384369208023  0.6050486853472137
  0.5832616265316375  0.1665299136542444  0.6050481092969164
  0.8334700553457566  0.4167383704683587  0.6050481092969164
  0.5817960784303580  0.4182039475696371  0.8949895451728693
  0.8364131667769783  0.4182032771996873  0.8949920808837817
  0.5817967198003018  0.1635868022230298  0.8949920808837817
  0.9182039519495007  0.0817960180504969  0.3949895617444454
  0.6635865563214622  0.0817965871708779  0.3949920869202899
  0.9182033808291266  0.3364134526785278  0.3949920869202899
  0.9167384512661414  0.5832615136466188  0.1050486240782362
  0.9167383978245169  0.8334701317874362  0.1050480444162645
  0.6665296652861130  0.5832614803545795  0.1050480579195749
  0.5832615196466193  0.9167384272661465  0.6050486460782309
  0.5832615033545778  0.6665296772861140  0.6050480799195697
  0.8334700807874427  0.9167383448245232  0.6050480664162592
  0.5817960150379164  0.9182039291737425  0.8949895788243722
  0.8364131843347735  0.9182032458812799  0.8949921192474051
  0.5817966124209946  0.6635865954697096  0.8949921058027854
  0.9182039531737374  0.5817960090379160  0.3949895348243686
  0.6635865834697086  0.5817965894209962  0.3949920618027960
  0.9182032988812736  0.8364132353347742  0.3949920752474156
  0.3332911423732128  0.1667088807072830  0.2598765428740180
  0.1667088867072763  0.3332911633732110  0.7598765868740145
  0.3332911624152430  0.6667088395847500  0.2598765399974994
  0.1667089253100755  0.8332910796899213  0.7598765906742244
  0.8332910016899220  0.1667089013100806  0.2598765466742279
  0.6667088465847471  0.3332911784152444  0.7598765839974959
  0.8332910692927200  0.6667088546267905  0.2598765428740180
  0.6667088906267935  0.8332911002927190  0.7598765868740145
  0.1666685028652353  0.3333316294364437  0.0259604715178128
  0.3333316084364455  0.1666684968652419  0.5259604715178199
  0.3333349931486254  0.1666651069123830  0.9740491247732095
  0.1666651129123764  0.3333350141486235  0.4740491247732095
  0.1666684718786442  0.8333315331213456  0.0259604876580681
  0.3333315557444436  0.6666684462555565  0.5259604470670922
  0.3333349430168226  0.6666650589831775  0.9740491572018755
  0.1666650839123704  0.8333349210876264  0.4740491032468270
  0.6666684532555536  0.3333315717444449  0.0259604470670851
  0.8333314551213462  0.1666684478786564  0.5259604876580681
  0.8333348430876271  0.1666650599123756  0.9740491032468270
  0.6666650659831745  0.3333349590168240  0.4740491572018755
  0.6666684245635608  0.8333314841347601  0.0259604715178128
  0.8333314531347611  0.6666683885635578  0.5259604715178199
  0.8333348430876200  0.6666650038513779  0.9740491247732095
  0.6666650398513809  0.8333348740876190  0.4740491247732095
  0.0000015504206345  0.9999984495793655  0.1532152980233192
  0.9999984495793655  0.0000015504206345  0.6532152760233245
  0.0000010249986531  0.9999989750013469  0.8504777268334109
  0.9999989750013469  0.0000010249986531  0.3504776608334197
  0.0000015133963842  0.4999983895398898  0.1532152759213830
  0.9999984826036155  0.5000016044601168  0.6532152539213882
  0.0000010626593365  0.4999990323514822  0.8504777479599639
  0.9999989333406631  0.5000009616485244  0.3504776819599655
  0.5000016074601135  0.9999984846036156  0.1532152759213830
  0.4999983925398865  0.0000015153963844  0.6532152539213882
  0.5000009646485211  0.9999989353406633  0.8504777479599639
  0.4999990353514789  0.0000010646593367  0.3504776819599655
  0.5000015836472969  0.4999984113527063  0.1532152609122051
  0.4999984123527028  0.5000015826473003  0.6532152389122103
  0.5000009885493455  0.4999990064506576  0.8504777624168725
  0.4999990074506613  0.5000009875493490  0.3504776964168741
  0.1666675596981619  0.3333323892124582  0.9375733886605815
  0.3333323682124600  0.1666675536981685  0.4375733886605815
  0.3333359360225145  0.1666639745545027  0.0619311252893695
  0.1666639805544960  0.3333359570225198  0.5619311092893682
  0.1666675799819686  0.8333324250180283  0.9375733557870447
  0.3333323900889269  0.6666676119110733  0.4375734392381361
  0.3333359619071743  0.6666640400928188  0.0619310608879218
  0.1666640029606157  0.8333360020393954  0.5619311514633551
  0.6666676189110703  0.3333324060889282  0.9375734392381361
  0.8333323470180289  0.1666675559819737  0.4375733557870447
  0.8333359240393960  0.1666639789606208  0.0619311674633565
  0.6666640470928158  0.3333359779071756  0.5619310448879205
  0.6666676647875462  0.8333324273018334  0.9375733886605815
  0.8333323963018344  0.6666676287875433  0.4375733886605815
  0.8333359754455145  0.6666640609774745  0.0619311252893695
  0.6666640969774775  0.8333360064455135  0.5619311092893682
  0.0893073942905005  0.4106925423339476  0.2494830575531850
  0.0893323058355691  0.1786111878761147  0.2494841652452209
  0.3213885722989716  0.4106675564085123  0.2494841743116538
  0.4106925343339469  0.0893073832905031  0.7494829915531867
  0.4106675434085147  0.3213885622989707  0.7494841083116484
  0.1786111758761137  0.0893322928355715  0.7494840992452154
  0.0893073098689285  0.9106926741310772  0.2494830510007091
  0.0893323077434900  0.6786112799387567  0.2494841692523693
  0.3213886890612372  0.9106676682565151  0.2494841692523693
  0.4106924913924601  0.5893074686075366  0.7494829971693591
  0.4106675644624431  0.8213886405310404  0.7494841067637950
  0.1786113774689611  0.5893324035375542  0.7494841067637950
  0.5893074936075351  0.4106925013924609  0.2494830631693574
  0.5893324085375582  0.1786113904689586  0.2494841727638004
  0.8213886505310413  0.4106675664624433  0.2494841727638004
  0.9106926871310748  0.0893073198689294  0.7494829850007108
  0.9106676772565123  0.3213886890612372  0.7494841032523638
  0.6786113079387590  0.0893323257434915  0.7494841032523638
  0.5893074206660529  0.9106926107095035  0.2494830575531850
  0.5893323985914876  0.6786114067010232  0.2494841743116538
  0.8213888211238825  0.9106677011644351  0.2494841652452209
  0.9106926227094974  0.5893074276660499  0.7494829915531867
  0.9106677201644331  0.8213888431238843  0.7494840992452154
  0.6786114337010289  0.5893324135914852  0.7494841083116484
  0.0738255447568150  0.4261743445190547  0.0555877058559560
  0.0738257319915689  0.1476450104356033  0.0555872535839583
  0.3523548960910290  0.4261741794774636  0.0555872257874483
  0.4261743305190535  0.0738255507568084  0.5555876948559444
  0.4261741804774601  0.3523548890910249  0.5555872147874439
  0.1476450164356038  0.0738257319915689  0.5555872425839539
  0.4257743742418256  0.0742255350099441  0.9461215648515520
  0.1484557976079444  0.0742246034952245  0.9461215948060655
  0.4257753194079186  0.3515441015496847  0.9461216175653178
  0.0742255290099507  0.4257743882418268  0.4461215648515520
  0.3515441085496889  0.4257753184079149  0.4461216175653178
  0.0742246034952245  0.1484557916079510  0.4461215948060655
  0.0738255741239868  0.9261743908760138  0.0555877140113736
  0.0738257282566437  0.6476450306779782  0.0555872285648675
  0.3523548973220159  0.9261742397433608  0.0555872285648675
  0.4261743915509300  0.5738256084490700  0.5555876964414921
  0.4261742179742285  0.8523549444355893  0.5555872375261615
  0.1476450535644105  0.5738257760257710  0.5555872375261615
  0.4257744224646629  0.5742255775353300  0.9461215611119940
  0.1484558328695798  0.5742246350764972  0.9461215964899665
  0.4257753589235023  0.8515441651304201  0.9461215964899665
  0.0742255444048752  0.9257744205951326  0.4461215606621991
  0.3515441084667543  0.9257753611461794  0.4461216160330181
  0.0742246068538250  0.6484558195332397  0.4461216160330181
  0.5738255844490681  0.4261743855509295  0.0555877074414965
  0.5738257790257677  0.1476450495644102  0.0555872485261659
  0.8523549754355884  0.4261742179742285  0.0555872485261659
  0.9261744658760094  0.0738256031239857  0.5555877030113692
  0.9261742867433611  0.3523549133220172  0.5555872175648631
  0.6476450566779803  0.0738257542566458  0.5555872175648631
  0.9257744955951281  0.0742255734048740  0.9461215606621991
  0.6484558455332490  0.0742246328538201  0.9461216160330181
  0.9257754081461798  0.3515441244667556  0.9461216160330181
  0.5742255535353280  0.4257744164646624  0.4461215611119940
  0.8515441961304191  0.4257753589235023  0.4461215964899665
  0.5742246380764939  0.1484558288695794  0.4461215964899665
  0.5738256234809427  0.9261744432431911  0.0555877058559560
  0.5738257915225375  0.6476450549089705  0.0555872257874483
  0.8523549705643916  0.9261742620084306  0.0555872535839583
  0.9261744732431865  0.5738256494809448  0.5555876948559444
  0.9261743080084273  0.8523549835643962  0.5555872425839539
  0.6476450799089761  0.5738258145225359  0.5555872147874439
  0.9257744889900579  0.5742256057581656  0.9461215648515520
  0.6484558674503162  0.5742246755920846  0.9461216175653178
  0.9257754365047717  0.8515442023920556  0.9461215948060655
  0.5742255797581635  0.9257744589900625  0.4461215648515520
  0.8515441893920510  0.9257753905047750  0.4461215948060655
  0.5742246525920862  0.6484558424503106  0.4461216175653178
  0.2528993081944009  0.2471005808988664  0.1500095549498326
  0.2528986317977129  0.0057893548812942  0.1500108949637280
  0.4942107702008229  0.2471013609718469  0.1500109236006111
  0.2471005838988631  0.2528993091944045  0.6500095219498334
  0.2471013609718469  0.4942107442008279  0.6500108906006119
  0.0057893568812943  0.2528986327977165  0.6500108619637288
  0.2468276248138537  0.2531722850015967  0.8489972243740453
  0.0063559251563916  0.2531749016194382  0.8489922342549647
  0.2468250892818489  0.4936441498066415  0.8489922077857912
  0.2531722840015931  0.2468276218138570  0.3489971803740488
  0.4936441758066366  0.2468250892818489  0.3489921637857947
  0.2531749006194346  0.0063559231563914  0.3489921902549682
  0.2528992088640365  0.7471007611359610  0.1500096065921070
  0.2528984696432559  0.5057889960209323  0.1500109689495943
  0.4942109789790692  0.7471015243567436  0.1500109689495943
  0.2471005956930981  0.7528994213068998  0.6500094963766898
  0.2471011912468200  0.9942104214182734  0.6500108317275775
  0.0057895395817269  0.7528987767531774  0.6500108317275775
  0.2468276479442011  0.7531723690557968  0.8489972424914569
  0.0063560756383865  0.7531750167743283  0.8489922536771957
  0.2468249512256691  0.9936438853616139  0.8489922536771957
  0.2531722096261220  0.7468277603738755  0.3489971412006270
  0.4936443320712343  0.7468252172954735  0.3489921341327360
  0.2531747767045260  0.5063556429287672  0.3489921341327360
  0.7528994013069052  0.2471005726930997  0.1500095293766890
  0.7528987357531776  0.0057895175817322  0.1500108647275766
  0.9942105004182693  0.2471012172468221  0.1500108647275766
  0.7471008311359668  0.2528992328640385  0.6500095735921079
  0.7471015703567474  0.4942109979790743  0.6500109359495951
  0.5057890180209270  0.2528984696432559  0.6500109359495951
  0.7468278303738813  0.2531722336261240  0.8489971852006235
  0.5063556649287619  0.2531747767045260  0.8489921781327325
  0.7468252632954773  0.4936443510712394  0.8489921781327325
  0.7531723490558022  0.2468276249442027  0.3489971984914604
  0.9936439643616097  0.2468249772256712  0.3489922096771991
  0.7531749757743285  0.0063560536383918  0.3489922096771991
  0.7528993491011349  0.7471006848055950  0.1500095549498326
  0.7528985930281564  0.5057892497991787  0.1500109236006111
  0.9942106181187071  0.7471013612022830  0.1500108949637280
  0.7471007538055972  0.7528994131011331  0.6500095219498334
  0.7471013802022881  0.9942105841187114  0.6500108619637288
  0.5057892697991733  0.7528986330281526  0.6500108906006119
  0.7468277779984049  0.7531723721861425  0.8489972243740453
  0.5063558641933597  0.7531749047181506  0.8489922077857912
  0.7468251113805664  0.9936440158436142  0.8489922342549647
  0.7531723081861443  0.7468277089984028  0.3489971803740488
  0.9936440498436099  0.7468250923805613  0.3489921902549682
  0.7531748647181544  0.5063558441933651  0.3489921637857947
  0.3333385382520504  0.1666622042743171  0.8122177997871347
  0.1666622102743105  0.3333385592520486  0.3122177997871347
  0.1666693831438195  0.3333315292252834  0.1862613576144128
  0.3333315082252852  0.1666693771438261  0.6862613356144109
  0.3333382334539152  0.6666617685460849  0.8122177770698471
  0.1666620164860717  0.8333379885139252  0.3122178147489052
  0.1666691470665498  0.8333308579334471  0.1862613400360544
  0.3333311418158829  0.6666688601841173  0.6862613620043376
  0.8333379105139258  0.1666619924860768  0.8122178147488981
  0.6666617755460820  0.3333382494539165  0.3122177770698471
  0.6666688671841143  0.3333311578158842  0.1862613840043394
  0.8333307799334477  0.1666691230665549  0.6862613180360526
  0.8333377457256859  0.6666614587479529  0.8122177997871347
  0.6666614947479559  0.8333377767256849  0.3122177997871347
  0.6666685247747210  0.8333306038561759  0.1862613576144128
  0.8333305728561768  0.6666684887747181  0.6862613356144109
 
  0.00000000E+00  0.00000000E+00  0.00000000E+00
  0.00000000E+00  0.00000000E+00  0.00000000E+00
  0.00000000E+00  0.00000000E+00  0.00000000E+00
  0.00000000E+00  0.00000000E+00  0.00000000E+00
  0.00000000E+00  0.00000000E+00  0.00000000E+00
  0.00000000E+00  0.00000000E+00  0.00000000E+00
  0.00000000E+00  0.00000000E+00  0.00000000E+00
  0.00000000E+00  0.00000000E+00  0.00000000E+00
  0.00000000E+00  0.00000000E+00  0.00000000E+00
  0.00000000E+00  0.00000000E+00  0.00000000E+00
  0.00000000E+00  0.00000000E+00  0.00000000E+00
  0.00000000E+00  0.00000000E+00  0.00000000E+00
  0.00000000E+00  0.00000000E+00  0.00000000E+00
  0.00000000E+00  0.00000000E+00  0.00000000E+00
  0.00000000E+00  0.00000000E+00  0.00000000E+00
  0.00000000E+00  0.00000000E+00  0.00000000E+00
  0.00000000E+00  0.00000000E+00  0.00000000E+00
  0.00000000E+00  0.00000000E+00  0.00000000E+00
  0.00000000E+00  0.00000000E+00  0.00000000E+00
  0.00000000E+00  0.00000000E+00  0.00000000E+00
  0.00000000E+00  0.00000000E+00  0.00000000E+00
  0.00000000E+00  0.00000000E+00  0.00000000E+00
  0.00000000E+00  0.00000000E+00  0.00000000E+00
  0.00000000E+00  0.00000000E+00  0.00000000E+00
  0.00000000E+00  0.00000000E+00  0.00000000E+00
  0.00000000E+00  0.00000000E+00  0.00000000E+00
  0.00000000E+00  0.00000000E+00  0.00000000E+00
  0.00000000E+00  0.00000000E+00  0.00000000E+00
  0.00000000E+00  0.00000000E+00  0.00000000E+00
  0.00000000E+00  0.00000000E+00  0.00000000E+00
  0.00000000E+00  0.00000000E+00  0.00000000E+00
  0.00000000E+00  0.00000000E+00  0.00000000E+00
  0.00000000E+00  0.00000000E+00  0.00000000E+00
  0.00000000E+00  0.00000000E+00  0.00000000E+00
  0.00000000E+00  0.00000000E+00  0.00000000E+00
  0.00000000E+00  0.00000000E+00  0.00000000E+00
  0.00000000E+00  0.00000000E+00  0.00000000E+00
  0.00000000E+00  0.00000000E+00  0.00000000E+00
  0.00000000E+00  0.00000000E+00  0.00000000E+00
  0.00000000E+00  0.00000000E+00  0.00000000E+00
  0.00000000E+00  0.00000000E+00  0.00000000E+00
  0.00000000E+00  0.00000000E+00  0.00000000E+00
  0.00000000E+00  0.00000000E+00  0.00000000E+00
  0.00000000E+00  0.00000000E+00  0.00000000E+00
  0.00000000E+00  0.00000000E+00  0.00000000E+00
  0.00000000E+00  0.00000000E+00  0.00000000E+00
  0.00000000E+00  0.00000000E+00  0.00000000E+00
  0.00000000E+00  0.00000000E+00  0.00000000E+00
  0.00000000E+00  0.00000000E+00  0.00000000E+00
  0.00000000E+00  0.00000000E+00  0.00000000E+00
  0.00000000E+00  0.00000000E+00  0.00000000E+00
  0.00000000E+00  0.00000000E+00  0.00000000E+00
  0.00000000E+00  0.00000000E+00  0.00000000E+00
  0.00000000E+00  0.00000000E+00  0.00000000E+00
  0.00000000E+00  0.00000000E+00  0.00000000E+00
  0.00000000E+00  0.00000000E+00  0.00000000E+00
  0.00000000E+00  0.00000000E+00  0.00000000E+00
  0.00000000E+00  0.00000000E+00  0.00000000E+00
  0.00000000E+00  0.00000000E+00  0.00000000E+00
  0.00000000E+00  0.00000000E+00  0.00000000E+00
  0.00000000E+00  0.00000000E+00  0.00000000E+00
  0.00000000E+00  0.00000000E+00  0.00000000E+00
  0.00000000E+00  0.00000000E+00  0.00000000E+00
  0.00000000E+00  0.00000000E+00  0.00000000E+00
  0.00000000E+00  0.00000000E+00  0.00000000E+00
  0.00000000E+00  0.00000000E+00  0.00000000E+00
  0.00000000E+00  0.00000000E+00  0.00000000E+00
  0.00000000E+00  0.00000000E+00  0.00000000E+00
  0.00000000E+00  0.00000000E+00  0.00000000E+00
  0.00000000E+00  0.00000000E+00  0.00000000E+00
  0.00000000E+00  0.00000000E+00  0.00000000E+00
  0.00000000E+00  0.00000000E+00  0.00000000E+00
  0.00000000E+00  0.00000000E+00  0.00000000E+00
  0.00000000E+00  0.00000000E+00  0.00000000E+00
  0.00000000E+00  0.00000000E+00  0.00000000E+00
  0.00000000E+00  0.00000000E+00  0.00000000E+00
  0.00000000E+00  0.00000000E+00  0.00000000E+00
  0.00000000E+00  0.00000000E+00  0.00000000E+00
  0.00000000E+00  0.00000000E+00  0.00000000E+00
  0.00000000E+00  0.00000000E+00  0.00000000E+00
  0.00000000E+00  0.00000000E+00  0.00000000E+00
  0.00000000E+00  0.00000000E+00  0.00000000E+00
  0.00000000E+00  0.00000000E+00  0.00000000E+00
  0.00000000E+00  0.00000000E+00  0.00000000E+00
  0.00000000E+00  0.00000000E+00  0.00000000E+00
  0.00000000E+00  0.00000000E+00  0.00000000E+00
  0.00000000E+00  0.00000000E+00  0.00000000E+00
  0.00000000E+00  0.00000000E+00  0.00000000E+00
  0.00000000E+00  0.00000000E+00  0.00000000E+00
  0.00000000E+00  0.00000000E+00  0.00000000E+00
  0.00000000E+00  0.00000000E+00  0.00000000E+00
  0.00000000E+00  0.00000000E+00  0.00000000E+00
  0.00000000E+00  0.00000000E+00  0.00000000E+00
  0.00000000E+00  0.00000000E+00  0.00000000E+00
  0.00000000E+00  0.00000000E+00  0.00000000E+00
  0.00000000E+00  0.00000000E+00  0.00000000E+00
  0.00000000E+00  0.00000000E+00  0.00000000E+00
  0.00000000E+00  0.00000000E+00  0.00000000E+00
  0.00000000E+00  0.00000000E+00  0.00000000E+00
  0.00000000E+00  0.00000000E+00  0.00000000E+00
  0.00000000E+00  0.00000000E+00  0.00000000E+00
  0.00000000E+00  0.00000000E+00  0.00000000E+00
  0.00000000E+00  0.00000000E+00  0.00000000E+00
  0.00000000E+00  0.00000000E+00  0.00000000E+00
  0.00000000E+00  0.00000000E+00  0.00000000E+00
  0.00000000E+00  0.00000000E+00  0.00000000E+00
  0.00000000E+00  0.00000000E+00  0.00000000E+00
  0.00000000E+00  0.00000000E+00  0.00000000E+00
  0.00000000E+00  0.00000000E+00  0.00000000E+00
  0.00000000E+00  0.00000000E+00  0.00000000E+00
  0.00000000E+00  0.00000000E+00  0.00000000E+00
  0.00000000E+00  0.00000000E+00  0.00000000E+00
  0.00000000E+00  0.00000000E+00  0.00000000E+00
  0.00000000E+00  0.00000000E+00  0.00000000E+00
  0.00000000E+00  0.00000000E+00  0.00000000E+00
  0.00000000E+00  0.00000000E+00  0.00000000E+00
  0.00000000E+00  0.00000000E+00  0.00000000E+00
  0.00000000E+00  0.00000000E+00  0.00000000E+00
  0.00000000E+00  0.00000000E+00  0.00000000E+00
  0.00000000E+00  0.00000000E+00  0.00000000E+00
  0.00000000E+00  0.00000000E+00  0.00000000E+00
  0.00000000E+00  0.00000000E+00  0.00000000E+00
  0.00000000E+00  0.00000000E+00  0.00000000E+00
  0.00000000E+00  0.00000000E+00  0.00000000E+00
  0.00000000E+00  0.00000000E+00  0.00000000E+00
  0.00000000E+00  0.00000000E+00  0.00000000E+00
  0.00000000E+00  0.00000000E+00  0.00000000E+00
  0.00000000E+00  0.00000000E+00  0.00000000E+00
  0.00000000E+00  0.00000000E+00  0.00000000E+00
  0.00000000E+00  0.00000000E+00  0.00000000E+00
  0.00000000E+00  0.00000000E+00  0.00000000E+00
  0.00000000E+00  0.00000000E+00  0.00000000E+00
  0.00000000E+00  0.00000000E+00  0.00000000E+00
  0.00000000E+00  0.00000000E+00  0.00000000E+00
  0.00000000E+00  0.00000000E+00  0.00000000E+00
  0.00000000E+00  0.00000000E+00  0.00000000E+00
  0.00000000E+00  0.00000000E+00  0.00000000E+00
  0.00000000E+00  0.00000000E+00  0.00000000E+00
  0.00000000E+00  0.00000000E+00  0.00000000E+00
  0.00000000E+00  0.00000000E+00  0.00000000E+00
  0.00000000E+00  0.00000000E+00  0.00000000E+00
  0.00000000E+00  0.00000000E+00  0.00000000E+00
  0.00000000E+00  0.00000000E+00  0.00000000E+00
  0.00000000E+00  0.00000000E+00  0.00000000E+00
  0.00000000E+00  0.00000000E+00  0.00000000E+00
  0.00000000E+00  0.00000000E+00  0.00000000E+00
  0.00000000E+00  0.00000000E+00  0.00000000E+00
  0.00000000E+00  0.00000000E+00  0.00000000E+00
  0.00000000E+00  0.00000000E+00  0.00000000E+00
  0.00000000E+00  0.00000000E+00  0.00000000E+00
  0.00000000E+00  0.00000000E+00  0.00000000E+00
  0.00000000E+00  0.00000000E+00  0.00000000E+00
  0.00000000E+00  0.00000000E+00  0.00000000E+00
  0.00000000E+00  0.00000000E+00  0.00000000E+00
  0.00000000E+00  0.00000000E+00  0.00000000E+00
  0.00000000E+00  0.00000000E+00  0.00000000E+00
  0.00000000E+00  0.00000000E+00  0.00000000E+00
  0.00000000E+00  0.00000000E+00  0.00000000E+00
  0.00000000E+00  0.00000000E+00  0.00000000E+00
  0.00000000E+00  0.00000000E+00  0.00000000E+00
  0.00000000E+00  0.00000000E+00  0.00000000E+00
  0.00000000E+00  0.00000000E+00  0.00000000E+00
  0.00000000E+00  0.00000000E+00  0.00000000E+00
  0.00000000E+00  0.00000000E+00  0.00000000E+00
  0.00000000E+00  0.00000000E+00  0.00000000E+00
  0.00000000E+00  0.00000000E+00  0.00000000E+00
  0.00000000E+00  0.00000000E+00  0.00000000E+00
  0.00000000E+00  0.00000000E+00  0.00000000E+00
  0.00000000E+00  0.00000000E+00  0.00000000E+00
  0.00000000E+00  0.00000000E+00  0.00000000E+00
  0.00000000E+00  0.00000000E+00  0.00000000E+00
  0.00000000E+00  0.00000000E+00  0.00000000E+00
  0.00000000E+00  0.00000000E+00  0.00000000E+00
  0.00000000E+00  0.00000000E+00  0.00000000E+00
  0.00000000E+00  0.00000000E+00  0.00000000E+00
  0.00000000E+00  0.00000000E+00  0.00000000E+00
  0.00000000E+00  0.00000000E+00  0.00000000E+00
  0.00000000E+00  0.00000000E+00  0.00000000E+00
  0.00000000E+00  0.00000000E+00  0.00000000E+00
  0.00000000E+00  0.00000000E+00  0.00000000E+00
  0.00000000E+00  0.00000000E+00  0.00000000E+00
  0.00000000E+00  0.00000000E+00  0.00000000E+00
  0.00000000E+00  0.00000000E+00  0.00000000E+00
  0.00000000E+00  0.00000000E+00  0.00000000E+00
  0.00000000E+00  0.00000000E+00  0.00000000E+00
  0.00000000E+00  0.00000000E+00  0.00000000E+00
  0.00000000E+00  0.00000000E+00  0.00000000E+00
  0.00000000E+00  0.00000000E+00  0.00000000E+00
  0.00000000E+00  0.00000000E+00  0.00000000E+00
  0.00000000E+00  0.00000000E+00  0.00000000E+00
  0.00000000E+00  0.00000000E+00  0.00000000E+00
  0.00000000E+00  0.00000000E+00  0.00000000E+00
  0.00000000E+00  0.00000000E+00  0.00000000E+00
  0.00000000E+00  0.00000000E+00  0.00000000E+00
  0.00000000E+00  0.00000000E+00  0.00000000E+00
  0.00000000E+00  0.00000000E+00  0.00000000E+00
  0.00000000E+00  0.00000000E+00  0.00000000E+00
  0.00000000E+00  0.00000000E+00  0.00000000E+00
  0.00000000E+00  0.00000000E+00  0.00000000E+00
  0.00000000E+00  0.00000000E+00  0.00000000E+00
  0.00000000E+00  0.00000000E+00  0.00000000E+00
  0.00000000E+00  0.00000000E+00  0.00000000E+00
  0.00000000E+00  0.00000000E+00  0.00000000E+00
  0.00000000E+00  0.00000000E+00  0.00000000E+00
  0.00000000E+00  0.00000000E+00  0.00000000E+00
  0.00000000E+00  0.00000000E+00  0.00000000E+00
  0.00000000E+00  0.00000000E+00  0.00000000E+00
  0.00000000E+00  0.00000000E+00  0.00000000E+00
  0.00000000E+00  0.00000000E+00  0.00000000E+00
  0.00000000E+00  0.00000000E+00  0.00000000E+00
  0.00000000E+00  0.00000000E+00  0.00000000E+00
  0.00000000E+00  0.00000000E+00  0.00000000E+00
  0.00000000E+00  0.00000000E+00  0.00000000E+00
  0.00000000E+00  0.00000000E+00  0.00000000E+00
  0.00000000E+00  0.00000000E+00  0.00000000E+00
  0.00000000E+00  0.00000000E+00  0.00000000E+00
  0.00000000E+00  0.00000000E+00  0.00000000E+00
  0.00000000E+00  0.00000000E+00  0.00000000E+00
  0.00000000E+00  0.00000000E+00  0.00000000E+00
  0.00000000E+00  0.00000000E+00  0.00000000E+00
  0.00000000E+00  0.00000000E+00  0.00000000E+00
  0.00000000E+00  0.00000000E+00  0.00000000E+00
  0.00000000E+00  0.00000000E+00  0.00000000E+00
  0.00000000E+00  0.00000000E+00  0.00000000E+00
  0.00000000E+00  0.00000000E+00  0.00000000E+00
  0.00000000E+00  0.00000000E+00  0.00000000E+00
  0.00000000E+00  0.00000000E+00  0.00000000E+00
  0.00000000E+00  0.00000000E+00  0.00000000E+00
  0.00000000E+00  0.00000000E+00  0.00000000E+00
  0.00000000E+00  0.00000000E+00  0.00000000E+00
  0.00000000E+00  0.00000000E+00  0.00000000E+00
  0.00000000E+00  0.00000000E+00  0.00000000E+00
  0.00000000E+00  0.00000000E+00  0.00000000E+00
  0.00000000E+00  0.00000000E+00  0.00000000E+00
  0.00000000E+00  0.00000000E+00  0.00000000E+00
  0.00000000E+00  0.00000000E+00  0.00000000E+00
  0.00000000E+00  0.00000000E+00  0.00000000E+00
  0.00000000E+00  0.00000000E+00  0.00000000E+00
  0.00000000E+00  0.00000000E+00  0.00000000E+00
  0.00000000E+00  0.00000000E+00  0.00000000E+00
  0.00000000E+00  0.00000000E+00  0.00000000E+00
  0.00000000E+00  0.00000000E+00  0.00000000E+00
  0.00000000E+00  0.00000000E+00  0.00000000E+00
  0.00000000E+00  0.00000000E+00  0.00000000E+00
  0.00000000E+00  0.00000000E+00  0.00000000E+00
  0.00000000E+00  0.00000000E+00  0.00000000E+00
  0.00000000E+00  0.00000000E+00  0.00000000E+00
  0.00000000E+00  0.00000000E+00  0.00000000E+00
  0.00000000E+00  0.00000000E+00  0.00000000E+00
  0.00000000E+00  0.00000000E+00  0.00000000E+00
  0.00000000E+00  0.00000000E+00  0.00000000E+00
  0.00000000E+00  0.00000000E+00  0.00000000E+00
  0.00000000E+00  0.00000000E+00  0.00000000E+00
  0.00000000E+00  0.00000000E+00  0.00000000E+00
  0.00000000E+00  0.00000000E+00  0.00000000E+00
  0.00000000E+00  0.00000000E+00  0.00000000E+00
